%nprocshared=24
%mem=188GB
%chk=r1.chk
# td=(nstates=20) cam-b3lyp/6-31+g(d,p) scf=xqc scrf=(iefpcm,read) nosymm int=(ultrafine,acc2e=11) iop(3/107=0010000000,3/108=0010000000,3/33=1,9/40=5) punch=mo tda

r1

0 1 0 1 0 1
 S(Fragment=1)      0.61948843    7.33985688   11.65647380
 C(Fragment=1)      0.88548843    5.65585688   11.76247380
 C(Fragment=1)      0.53048843    7.46685688   13.39147380
 C(Fragment=1)      1.06248843    4.58885688   10.85747380
 C(Fragment=1)      0.90348843    5.22785688   13.05547380
 C(Fragment=1)      0.30248843    8.63785688   14.12847380
 C(Fragment=1)      0.71348843    6.20285688   14.03647380
 N(Fragment=1)      1.03848843    4.39185688    9.50047380
 C(Fragment=1)      1.20048843    3.35185688   11.52847380
 S(Fragment=1)      1.15748843    3.46685688   13.21047380
 C(Fragment=1)      0.12948843    9.97485688   13.85747380
 H(Fragment=1)      0.25648843    8.46685688   15.04047380
 C(Fragment=1)      0.51815094    5.93116920   15.53968006
 C(Fragment=1)      1.21448843    2.97385688    9.22547380
 C(Fragment=1)      0.85108953    5.55949616    8.62731850
 C(Fragment=1)      1.27648843    2.38285688   10.48147380
 C(Fragment=1)      0.05848843   10.45885688   12.58447380
 C(Fragment=1)     -0.13151157   11.08485688   14.72447380
 H(Fragment=1)      1.25883379    6.46484595   16.09778225
 H(Fragment=1)     -0.45645600    6.25737717   15.83738744
 H(Fragment=1)      0.61635359    4.88251452   15.72830558
 C(Fragment=1)      1.31448843    2.18885688    8.08247380
 H(Fragment=1)     -0.10990405    5.99230755    8.81188726
 H(Fragment=1)      1.61298756    6.28276350    8.83053204
 H(Fragment=1)      0.91377915    5.25333134    7.60397442
 C(Fragment=1)      1.43748843    1.00685688   10.59647380
 O(Fragment=1)      0.21248843    9.93785688   11.44747380
 C(Fragment=1)     -0.18551157   11.95885688   12.57547380
 C(Fragment=1)     -0.15851157   10.99885688   16.10447380
 C(Fragment=1)     -0.32851157   12.32885688   13.92947380
 C(Fragment=1)      1.47548843    0.81285688    8.19547380
 N(Fragment=1)      1.29548843    2.54285688    6.67447380
 N(Fragment=1)      1.52848843    0.25885688   11.75947380
 C(Fragment=1)      1.53548843    0.22185688    9.45147380
 C(Fragment=1)     -0.38451157   12.91785688   11.60647380
 C(Fragment=1)     -0.02551157    9.84385688   16.83347380
 C(Fragment=1)     -0.37851157   12.07085688   16.92347380
 C(Fragment=1)     -0.60851157   13.64485688   14.32547380
 C(Fragment=1)      1.58748843    0.29385688    6.84447380
 C(Fragment=1)      1.46148843    1.31185688    6.00247380
 C(Fragment=1)      1.03178978    3.74763623    5.87455521
 S(Fragment=1)      1.69648843   -1.26414312   11.29647380
 N(Fragment=1)      1.72348843   -1.12914312    9.68847380
 C(Fragment=1)     -0.63151157   14.18785688   12.04047380
 H(Fragment=1)     -0.35251157   12.71085688   10.70047380
 N(Fragment=1)      0.13148843    8.88585688   17.51347380
 N(Fragment=1)     -0.56151157   13.05185688   17.62347380
 H(Fragment=1)     -0.65351157   13.89185688   15.21947380
 C(Fragment=1)     -0.80051157   14.50485688   13.36547380
 S(Fragment=1)      1.80748843   -1.25314312    6.15147380
 C(Fragment=1)      1.60348843    0.86385688    4.67247380
 H(Fragment=1)      1.95602571    4.24150238    5.65825874
 H(Fragment=1)      0.55291640    3.47002054    4.95885339
 H(Fragment=1)      0.39448336    4.40833364    6.42430011
 F(Fragment=1)     -0.79851157   15.16285688   11.10047380
 F(Fragment=1)     -1.05551157   15.77985688   13.59647380
 C(Fragment=1)      1.80648843   -0.41814312    4.55047380
 S(Fragment=1)      1.66048843    1.64085688    3.09247380
 C(Fragment=1)      1.94748843   -1.04114312    3.40547380
 C(Fragment=1)      1.90848843    0.00785688    2.43647380
 C(Fragment=1)      1.97162592   -2.51956410    2.97502198
 C(Fragment=1)      2.09148843   -0.22114312    1.00947380
 H(Fragment=1)      1.16360409   -2.70752207    2.29924647
 H(Fragment=1)      2.90036123   -2.73442426    2.48903243
 H(Fragment=1)      1.86768327   -3.14396016    3.83770703
 C(Fragment=1)      2.15648843    0.60185688   -0.08052620
 H(Fragment=1)      2.18348843   -1.12114312    0.79547380
 C(Fragment=1)      2.42648843    0.15685688   -1.57652620
 C(Fragment=1)      2.14148843    2.00785688   -0.14752620
 C(Fragment=1)      2.53348843    1.39085688   -2.32852620
 C(Fragment=1)      2.60648843   -1.11814312   -1.91152620
 O(Fragment=1)      1.92548843    2.83085688    0.77847380
 C(Fragment=1)      2.33248843    2.52485688   -1.54752620
 C(Fragment=1)      2.72648843    1.51685688   -3.69952620
 C(Fragment=1)      2.48548843   -2.29414312   -1.15652620
 C(Fragment=1)      2.92148843   -1.40914312   -3.25952620
 C(Fragment=1)      2.32548843    3.78185688   -2.13752620
 H(Fragment=1)      2.86048843    0.75885688   -4.22052620
 C(Fragment=1)      2.71948843    2.77385688   -4.28952620
 N(Fragment=1)      2.35148843   -3.27314312   -0.51152620
 N(Fragment=1)      3.14248843   -1.63514312   -4.39352620
 C(Fragment=1)      2.51848843    3.90785688   -3.50852620
 H(Fragment=1)      2.19048843    4.53985688   -1.61652620
 F(Fragment=1)      2.84848843    3.05285688   -5.59752620
 F(Fragment=1)      2.55848843    5.14485688   -3.99152620
 H(Fragment=2)     10.18500000    7.45800000   17.14900000
 C(Fragment=2)     10.13500000    7.62800000   16.23500000
 C(Fragment=2)      9.89400000    8.91800000   15.77800000
 C(Fragment=2)     10.29700000    6.58800000   15.32600000
 C(Fragment=2)      9.66500000   10.19600000   16.52400000
 C(Fragment=2)      9.81700000    9.17100000   14.41200000
 F(Fragment=2)     10.54100000    5.38000000   15.73100000
 C(Fragment=2)     10.22000000    6.83900000   13.96100000
 C(Fragment=2)      9.49500000   11.20200000   15.44500000
 C(Fragment=2)      9.62800000   10.42600000   17.74200000
 C(Fragment=2)      9.51900000   10.67300000   14.12600000
 C(Fragment=2)      9.98000000    8.13100000   13.50400000
 F(Fragment=2)     10.38200000    5.87100000   13.02600000
 C(Fragment=2)      9.36300000   12.59300000   15.63900000
 C(Fragment=2)      9.43200000   11.60600000   18.50600000
 C(Fragment=2)      9.83900000    9.13800000   18.56600000
 O(Fragment=2)      9.39200000   11.06600000   13.00600000
 H(Fragment=2)      9.92900000    8.29800000   12.59300000
 H(Fragment=2)      9.38700000   12.81900000   16.54100000
 C(Fragment=2)      9.19900000   13.75800000   14.79700000
 N(Fragment=2)      9.29400000   12.59800000   19.09600000
 N(Fragment=2)      9.99485821    8.18660011   19.17465956
 S(Fragment=2)      9.28900000   13.75300000   13.06100000
 C(Fragment=2)      9.10800000   15.03400000   15.33800000
 C(Fragment=2)      9.13200000   15.42100000   13.07000000
 C(Fragment=2)      9.03200000   16.00200000   14.34000000
 C(Fragment=2)      9.07381715   15.41403283   16.82998076
 C(Fragment=2)      9.09300000   16.54400000   12.12400000
 S(Fragment=2)      8.90900000   17.72500000   14.38700000
 H(Fragment=2)      8.26347190   14.90543110   17.30911001
 H(Fragment=2)      9.99623869   15.12967129   17.29169173
 H(Fragment=2)      8.93799046   16.47104483   16.92577606
 N(Fragment=2)      9.21000000   16.63300000   10.73200000
 C(Fragment=2)      9.01300000   17.81000000   12.64200000
 C(Fragment=2)      9.13700000   17.97300000   10.41400000
 C(Fragment=2)      9.55024172   15.47223332    9.89668192
 C(Fragment=2)      9.04900000   18.73800000   11.59500000
 C(Fragment=2)      9.14600000   18.81700000    9.17000000
 H(Fragment=2)      9.10746568   15.58687235    8.92936229
 H(Fragment=2)     10.61337205   15.40425105    9.79652045
 H(Fragment=2)      9.17754625   14.58066509   10.35614267
 C(Fragment=2)      8.88100000   20.15000000   11.68100000
 N(Fragment=2)      9.34500000   18.50400000    7.81400000
 C(Fragment=2)      8.92500000   20.17100000    9.26900000
 N(Fragment=2)      8.70500000   20.83500000   12.80400000
 C(Fragment=2)      8.70800000   20.77200000   10.47800000
 C(Fragment=2)      9.16000000   19.70400000    7.07300000
 C(Fragment=2)      9.81258265   17.24743420    7.21124892
 C(Fragment=2)      8.96200000   20.65300000    7.99900000
 S(Fragment=2)      8.47200000   22.36600000   12.33500000
 N(Fragment=2)      8.55100000   22.17700000   10.65400000
 C(Fragment=2)      9.21200000   20.04800000    5.71300000
 H(Fragment=2)     10.38674013   16.69957101    7.92894601
 H(Fragment=2)      8.96983203   16.66245833    6.90715254
 H(Fragment=2)     10.42152496   17.46563056    6.35891118
 S(Fragment=2)      8.71800000   22.21000000    7.16400000
 S(Fragment=2)      9.41900000   19.28000000    4.22800000
 C(Fragment=2)      8.97400000   21.42900000    5.70200000
 C(Fragment=2)      9.21300000   20.81000000    3.45400000
 C(Fragment=2)      9.01800000   21.88800000    4.34500000
 C(Fragment=2)      9.33300000   21.03500000    2.06000000
 C(Fragment=2)      8.80480321   23.37258950    3.99551303
 C(Fragment=2)      9.59200000   20.36600000    0.92000000
 H(Fragment=2)      9.18600000   21.93300000    1.87200000
 H(Fragment=2)      9.72258377   23.79004179    3.63730578
 H(Fragment=2)      8.05483715   23.45629053    3.23693209
 H(Fragment=2)      8.48885853   23.90293626    4.86947600
 C(Fragment=2)      9.64400000   18.93800000    0.95500000
 C(Fragment=2)      9.78800000   20.76700000   -0.49800000
 O(Fragment=2)      9.54700000   18.06600000    1.81400000
 C(Fragment=2)      9.87500000   18.39300000   -0.44800000
 C(Fragment=2)      9.79300000   22.00600000   -0.80700000
 C(Fragment=2)      9.95600000   19.50000000   -1.28400000
 C(Fragment=2)     10.05100000   17.11500000   -0.96600000
 C(Fragment=2)      9.66200000   23.19000000   -0.04000000
 C(Fragment=2)      9.94700000   22.28800000   -2.40400000
 C(Fragment=2)     10.21400000   19.33100000   -2.63800000
 H(Fragment=2)      9.99600000   16.37500000   -0.40800000
 C(Fragment=2)     10.30900000   16.94700000   -2.32300000
 N(Fragment=2)      9.52100000   24.15200000    0.55300000
 N(Fragment=2)     10.04917105   22.47509243   -3.46352702
 C(Fragment=2)     10.39000000   18.05400000   -3.15900000
 H(Fragment=2)     10.26800000   20.07200000   -3.19900000
 F(Fragment=2)     10.43900000   15.79400000   -2.90200000
 F(Fragment=2)     10.61400000   17.94400000   -4.51600000

Eps=5.0

