%nprocshared=24
%mem=188GB
%chk=r2.chk
# td=(nstates=20) cam-b3lyp/6-31+g(d,p) scrf=(iefpcm,read) nosymm int=(ultrafine,acc2e=11) iop(3/107=0010000000,3/108=0010000000,3/33=1,9/40=5) punch=mo tda

r2

0 1 0 1 0 1
 S(Fragment=1)      8.47200000   22.36600000   12.33500000
 N(Fragment=1)      8.55100000   22.17700000   10.65400000
 N(Fragment=1)      8.70500000   20.83500000   12.80400000
 C(Fragment=1)      8.70800000   20.77200000   10.47800000
 C(Fragment=1)      8.88100000   20.15000000   11.68100000
 C(Fragment=1)      8.92500000   20.17100000    9.26900000
 C(Fragment=1)      9.04900000   18.73800000   11.59500000
 C(Fragment=1)      9.14600000   18.81700000    9.17000000
 C(Fragment=1)      8.96200000   20.65300000    7.99900000
 C(Fragment=1)      9.01300000   17.81000000   12.64200000
 C(Fragment=1)      9.13700000   17.97300000   10.41400000
 N(Fragment=1)      9.34500000   18.50400000    7.81400000
 S(Fragment=1)      8.71800000   22.21000000    7.16400000
 C(Fragment=1)      9.16000000   19.70400000    7.07300000
 S(Fragment=1)      8.90900000   17.72500000   14.38700000
 C(Fragment=1)      9.09300000   16.54400000   12.12400000
 N(Fragment=1)      9.21000000   16.63300000   10.73200000
 C(Fragment=1)      9.68154470   17.18282957    7.26432159
 C(Fragment=1)      8.97400000   21.42900000    5.70200000
 C(Fragment=1)      9.21200000   20.04800000    5.71300000
 C(Fragment=1)      9.03200000   16.00200000   14.34000000
 C(Fragment=1)      9.13200000   15.42100000   13.07000000
 C(Fragment=1)      9.37801302   15.51548584    9.79187569
 H(Fragment=1)      8.80378996   16.73660406    6.84559804
 H(Fragment=1)     10.42431466   17.29237524    6.50196175
 H(Fragment=1)     10.06149731   16.55784151    8.04529915
 C(Fragment=1)      9.01800000   21.88800000    4.34500000
 S(Fragment=1)      9.41900000   19.28000000    4.22800000
 C(Fragment=1)      9.10800000   15.03400000   15.33800000
 S(Fragment=1)      9.28900000   13.75300000   13.06100000
 H(Fragment=1)      8.68654366   15.62329014    8.98246334
 H(Fragment=1)     10.37749189   15.51796278    9.40986016
 H(Fragment=1)      9.19229865   14.59177622   10.29899572
 C(Fragment=1)      9.21300000   20.81000000    3.45400000
 C(Fragment=1)      8.87213966   23.35983419    3.91601414
 C(Fragment=1)      9.19900000   13.75800000   14.79700000
 C(Fragment=1)      9.09307799   15.33894575   16.84743215
 C(Fragment=1)      9.33300000   21.03500000    2.06000000
 H(Fragment=1)      9.79892315   23.70608291    3.50847986
 H(Fragment=1)      8.10429234   23.44102129    3.17525834
 H(Fragment=1)      8.61185898   23.95503602    4.76624279
 C(Fragment=1)      9.36300000   12.59300000   15.63900000
 H(Fragment=1)      8.27853260   14.82009223   17.30809128
 H(Fragment=1)     10.01458540   15.01676219   17.28552102
 H(Fragment=1)      8.97574809   16.39186067   16.99744501
 C(Fragment=1)      9.59200000   20.36600000    0.92000000
 H(Fragment=1)      9.18600000   21.93300000    1.87200000
 C(Fragment=1)      9.49500000   11.20200000   15.44500000
 H(Fragment=1)      9.38700000   12.81900000   16.54100000
 C(Fragment=1)      9.64400000   18.93800000    0.95500000
 C(Fragment=1)      9.78800000   20.76700000   -0.49800000
 C(Fragment=1)      9.51900000   10.67300000   14.12600000
 C(Fragment=1)      9.66500000   10.19600000   16.52400000
 O(Fragment=1)      9.54700000   18.06600000    1.81400000
 C(Fragment=1)      9.87500000   18.39300000   -0.44800000
 C(Fragment=1)      9.79300000   22.00600000   -0.80700000
 C(Fragment=1)      9.95600000   19.50000000   -1.28400000
 O(Fragment=1)      9.39200000   11.06600000   13.00600000
 C(Fragment=1)      9.81700000    9.17100000   14.41200000
 C(Fragment=1)      9.89400000    8.91800000   15.77800000
 C(Fragment=1)      9.62800000   10.42600000   17.74200000
 C(Fragment=1)     10.05100000   17.11500000   -0.96600000
 C(Fragment=1)      9.66200000   23.19000000   -0.04000000
 C(Fragment=1)      9.94700000   22.28800000   -2.40400000
 C(Fragment=1)     10.21400000   19.33100000   -2.63800000
 C(Fragment=1)      9.98000000    8.13100000   13.50400000
 C(Fragment=1)     10.13500000    7.62800000   16.23500000
 C(Fragment=1)      9.43200000   11.60600000   18.50600000
 C(Fragment=1)      9.83900000    9.13800000   18.56600000
 H(Fragment=1)      9.99600000   16.37500000   -0.40800000
 C(Fragment=1)     10.30900000   16.94700000   -2.32300000
 N(Fragment=1)      9.52100000   24.15200000    0.55300000
 N(Fragment=1)     10.04917105   22.47509243   -3.46352702
 C(Fragment=1)     10.39000000   18.05400000   -3.15900000
 H(Fragment=1)     10.26800000   20.07200000   -3.19900000
 C(Fragment=1)     10.22000000    6.83900000   13.96100000
 H(Fragment=1)      9.92900000    8.29800000   12.59300000
 H(Fragment=1)     10.18500000    7.45800000   17.14900000
 C(Fragment=1)     10.29700000    6.58800000   15.32600000
 N(Fragment=1)      9.29400000   12.59800000   19.09600000
 N(Fragment=1)      9.99485821    8.18660011   19.17465956
 F(Fragment=1)     10.43900000   15.79400000   -2.90200000
 F(Fragment=1)     10.61400000   17.94400000   -4.51600000
 F(Fragment=1)     10.38200000    5.87100000   13.02600000
 F(Fragment=1)     10.54100000    5.38000000   15.73100000
 O(Fragment=2)     -0.13075794   21.05403868    3.43148825
 C(Fragment=2)      0.08524206   20.23103868    2.50548825
 C(Fragment=2)      0.27624206   20.74803868    1.10548825
 C(Fragment=2)      0.10024206   18.82503868    2.57248825
 C(Fragment=2)      0.47724206   19.61403868    0.32448825
 C(Fragment=2)      0.26924206   22.00503868    0.51548825
 C(Fragment=2)      0.37024206   18.38003868    1.07648825
 C(Fragment=2)      0.03524206   18.00203868    3.66248825
 C(Fragment=2)      0.67024206   19.74003868   -1.04651175
 C(Fragment=2)      0.46224206   22.13103868   -0.85551175
 H(Fragment=2)      0.13424206   22.76303868    1.03648825
 C(Fragment=2)      0.55024206   17.10503868    0.74148825
 C(Fragment=2)     -0.14775794   18.23103868    5.08948825
 H(Fragment=2)      0.12724206   17.10203868    3.44848825
 H(Fragment=2)      0.80424206   18.98203868   -1.56751175
 C(Fragment=2)      0.66324206   20.99703868   -1.63651175
 F(Fragment=2)      0.50224206   23.36803868   -1.33851175
 C(Fragment=2)      0.42924206   15.92903868    1.49648825
 C(Fragment=2)      0.86524206   16.81403868   -0.60651175
 S(Fragment=2)     -0.39575794   19.86403868    5.74548825
 C(Fragment=2)     -0.10875794   17.18203868    6.05848825
 F(Fragment=2)      0.79224206   21.27603868   -2.94451175
 N(Fragment=2)      0.29524206   14.95003868    2.14148825
 N(Fragment=2)      1.08624206   16.58803868   -1.74051175
 C(Fragment=2)     -0.45275794   19.08703868    7.32548825
 C(Fragment=2)     -0.24875794   17.80503868    7.20348825
 C(Fragment=2)      0.05879117   15.67071281    5.81472321
 C(Fragment=2)     -0.59475794   19.53503868    8.65548825
 S(Fragment=2)     -0.24875794   16.97003868    8.80448825
 H(Fragment=2)     -0.70800173   15.32930507    5.15111986
 H(Fragment=2)      1.01759046   15.48401830    5.37797489
 H(Fragment=2)     -0.01680127   15.14873841    6.74570576
 C(Fragment=2)     -0.46875794   18.51703868    9.49748825
 N(Fragment=2)     -0.76075794   20.76603868    9.32748825
 C(Fragment=2)     -0.58175794   19.03603868   10.84848825
 C(Fragment=2)     -0.74275794   20.41203868   10.73548825
 C(Fragment=2)     -0.91645311   22.10260623    8.73567223
 C(Fragment=2)     -0.52075794   18.44503868   12.10448825
 C(Fragment=2)     -0.84075794   21.19703868   11.87848825
 H(Fragment=2)     -1.85132907   22.52228978    9.04352391
 H(Fragment=2)     -0.11694603   22.73339180    9.06399825
 H(Fragment=2)     -0.89441334   22.02501237    7.66871701
 N(Fragment=2)     -0.33275794   17.09403868   12.34148825
 C(Fragment=2)     -0.61875794   19.23003868   13.24948825
 N(Fragment=2)     -1.01775794   22.61503868   12.15348825
 C(Fragment=2)     -0.77975794   20.60603868   13.13448825
 S(Fragment=2)     -0.35975794   16.95903868   13.94948825
 N(Fragment=2)     -0.52775794   18.48203868   14.41248825
 C(Fragment=2)     -0.99375794   22.81203868   13.51048825
 C(Fragment=2)     -1.19376000   23.66597979   11.14084515
 C(Fragment=2)     -0.85575794   21.57503868   14.18148825
 C(Fragment=2)     -1.17075794   23.87903868   14.41548825
 H(Fragment=2)     -2.11449162   24.18147148   11.31810655
 H(Fragment=2)     -0.38016608   24.35839017   11.20028247
 H(Fragment=2)     -1.21473259   23.22304810   10.16705273
 S(Fragment=2)     -0.89875794   21.69003868   15.86348825
 S(Fragment=2)     -1.43675794   25.56303868   14.30948825
 C(Fragment=2)     -1.15275794   23.45103868   15.70848825
 C(Fragment=2)     -1.52575794   25.69003868   16.04448825
 C(Fragment=2)     -1.34275794   24.42603868   16.68948825
 C(Fragment=2)     -1.75375794   26.86103868   16.78148825
 C(Fragment=2)     -1.35355930   24.18211373   18.21000920
 C(Fragment=2)     -1.92675794   28.19803868   16.51048825
 H(Fragment=2)     -1.79975794   26.69003868   17.69348825
 H(Fragment=2)     -0.59334095   24.77667921   18.67202646
 H(Fragment=2)     -2.30919277   24.45293793   18.60790231
 H(Fragment=2)     -1.16564901   23.14724377   18.40656423
 C(Fragment=2)     -1.99775794   28.68203868   15.23748825
 C(Fragment=2)     -2.18775794   29.30803868   17.37748825
 O(Fragment=2)     -1.84375794   28.16103868   14.10048825
 C(Fragment=2)     -2.24175794   30.18203868   15.22848825
 C(Fragment=2)     -2.21475794   29.22203868   18.75748825
 C(Fragment=2)     -2.38475794   30.55203868   16.58248825
 C(Fragment=2)     -2.44075794   31.14203868   14.25948825
 C(Fragment=2)     -2.08175794   28.06703868   19.48648825
 C(Fragment=2)     -2.43475794   30.29403868   19.57648825
 C(Fragment=2)     -2.66475794   31.86803868   16.97848825
 C(Fragment=2)     -2.68775794   32.41103868   14.69348825
 H(Fragment=2)     -2.40875794   30.93403868   13.35348825
 N(Fragment=2)     -1.92475794   27.10903868   20.16648825
 N(Fragment=2)     -2.61775794   31.27503868   20.27648825
 H(Fragment=2)     -2.70975794   32.11503868   17.87248825
 C(Fragment=2)     -2.85675794   32.72803868   16.01848825
 F(Fragment=2)     -2.85475794   33.38603868   13.75348825
 F(Fragment=2)     -3.11175794   34.00303868   16.24948825

Eps=5.0

