%nprocshared=24
%mem=188GB
%chk=r3.chk
# td=(nstates=20) cam-b3lyp/6-31+g(d,p) scf=xqc scrf=(iefpcm,read) nosymm int=(ultrafine,acc2e=11) iop(3/107=0010000000,3/108=0010000000,3/33=1,9/40=5) punch=mo tda

r3

0 1 0 1 0 1
 S(Fragment=1)      2.03772216   21.18497642   11.70422604
 N(Fragment=1)      2.11672216   20.99597642   10.02322604
 N(Fragment=1)      2.27072216   19.65397642   12.17322604
 C(Fragment=1)      2.27372216   19.59097642    9.84722604
 C(Fragment=1)      2.44672216   18.96897642   11.05022604
 C(Fragment=1)      2.49072216   18.98997642    8.63822604
 C(Fragment=1)      2.61472216   17.55697642   10.96422604
 C(Fragment=1)      2.71172216   17.63597642    8.53922604
 C(Fragment=1)      2.52772216   19.47197642    7.36822604
 C(Fragment=1)      2.57872216   16.62897642   12.01122604
 C(Fragment=1)      2.70272216   16.79197642    9.78322604
 N(Fragment=1)      2.91072216   17.32297642    7.18322604
 S(Fragment=1)      2.28372216   21.02897642    6.53322604
 C(Fragment=1)      2.72572216   18.52297642    6.44222604
 S(Fragment=1)      2.47472216   16.54397642   13.75622604
 C(Fragment=1)      2.65872216   15.36297642   11.49322604
 N(Fragment=1)      2.77572216   15.45197642   10.10122604
 C(Fragment=1)      3.24726686   16.00180599    6.63354763
 C(Fragment=1)      2.53972216   20.24797642    5.07122604
 C(Fragment=1)      2.77772216   18.86697642    5.08222604
 C(Fragment=1)      2.59772216   14.82097642   13.70922604
 C(Fragment=1)      2.69772216   14.23997642   12.43922604
 C(Fragment=1)      2.94373518   14.33446226    9.16110173
 H(Fragment=1)      4.01179821   15.55104883    7.23121795
 H(Fragment=1)      2.37632093   15.38027013    6.64035711
 H(Fragment=1)      3.59864927   16.11243115    5.62896191
 C(Fragment=1)      2.58372216   20.70697642    3.71422604
 S(Fragment=1)      2.98472216   18.09897642    3.59722604
 C(Fragment=1)      2.67372216   13.85297642   14.70722604
 S(Fragment=1)      2.85472216   12.57197642   12.43022604
 H(Fragment=1)      3.88056690   13.85135572    9.34509739
 H(Fragment=1)      2.14775802   13.63221750    9.29590774
 H(Fragment=1)      2.92517576   14.70638524    8.15799215
 C(Fragment=1)      2.77872216   19.62897642    2.82322604
 C(Fragment=1)      2.43786182   22.17881061    3.28524018
 C(Fragment=1)      2.76472216   12.57697642   14.16622604
 C(Fragment=1)      2.65880015   14.15792217   16.21665819
 C(Fragment=1)      2.89872216   19.85397642    1.42922604
 H(Fragment=1)      3.36473119   22.52514634    2.87797525
 H(Fragment=1)      1.67021549   22.25995557    2.54427148
 H(Fragment=1)      2.17729427   22.77396755    4.13541238
 C(Fragment=1)      2.92872216   11.41197642   15.00822604
 H(Fragment=1)      1.84411556   13.63925296   16.67727871
 H(Fragment=1)      3.58021409   13.83552798   16.65478869
 H(Fragment=1)      2.54170291   15.21086343   16.36666803
 C(Fragment=1)      3.15772216   19.18497642    0.28922604
 H(Fragment=1)      2.75172216   20.75197642    1.24122604
 C(Fragment=1)      3.06072216   10.02097642   14.81422604
 H(Fragment=1)      2.95272216   11.63797642   15.91022604
 C(Fragment=1)      3.20972216   17.75697642    0.32422604
 C(Fragment=1)      3.35372216   19.58597642   -1.12877396
 C(Fragment=1)      3.08472216    9.49197642   13.49522604
 C(Fragment=1)      3.23072216    9.01497642   15.89322604
 O(Fragment=1)      3.11272216   16.88497642    1.18322604
 C(Fragment=1)      3.44072216   17.21197642   -1.07877396
 C(Fragment=1)      3.35872216   20.82497642   -1.43777396
 C(Fragment=1)      3.52172216   18.31897642   -1.91477396
 O(Fragment=1)      2.95772216    9.88497642   12.37522604
 C(Fragment=1)      3.38272216    7.98997642   13.78122604
 C(Fragment=1)      3.45972216    7.73697642   15.14722604
 C(Fragment=1)      3.19372216    9.24497642   17.11122604
 C(Fragment=1)      3.61672216   15.93397642   -1.59677396
 C(Fragment=1)      3.22772216   22.00897642   -0.67077396
 C(Fragment=1)      3.51272216   21.10697642   -3.03477396
 C(Fragment=1)      3.77972216   18.14997642   -3.26877396
 C(Fragment=1)      3.54572216    6.94997642   12.87322604
 C(Fragment=1)      3.70072216    6.44697642   15.60422604
 C(Fragment=1)      2.99772216   10.42497642   17.87522604
 C(Fragment=1)      3.40472216    7.95697642   17.93522604
 H(Fragment=1)      3.56172216   15.19397642   -1.03877396
 C(Fragment=1)      3.87472216   15.76597642   -2.95377396
 N(Fragment=1)      3.08672216   22.97097642   -0.07777396
 N(Fragment=1)      3.61489321   21.29406885   -4.09430098
 C(Fragment=1)      3.95572216   16.87297642   -3.78977396
 H(Fragment=1)      3.83372216   18.89097642   -3.82977396
 C(Fragment=1)      3.78572216    5.65797642   13.33022604
 H(Fragment=1)      3.49472216    7.11697642   11.96222604
 H(Fragment=1)      3.75072216    6.27697642   16.51822604
 C(Fragment=1)      3.86272216    5.40697642   14.69522604
 N(Fragment=1)      2.85972216   11.41697642   18.46522604
 N(Fragment=1)      3.56058037    7.00557653   18.54388560
 F(Fragment=1)      4.00472216   14.61297642   -3.53277396
 F(Fragment=1)      4.17972216   16.76297642   -5.14677396
 F(Fragment=1)      3.94772216    4.68997642   12.39522604
 F(Fragment=1)      4.10672216    4.19897642   15.10022604
 H(Fragment=2)     13.15599502   15.34845496   -3.50832169
 C(Fragment=2)     14.08291819   15.69404965   -3.91609338
 H(Fragment=2)     14.85090434   15.61229102   -3.17554439
 H(Fragment=2)     14.34254509   15.09868465   -4.76640766
 C(Fragment=2)     13.93800000   17.16600000   -4.34500000
 C(Fragment=2)     13.98200000   17.62500000   -5.70200000
 C(Fragment=2)     13.74400000   18.24400000   -3.45400000
 S(Fragment=2)     14.23800000   16.84400000   -7.16400000
 C(Fragment=2)     13.74400000   19.00600000   -5.71300000
 S(Fragment=2)     13.53700000   19.77400000   -4.22800000
 C(Fragment=2)     13.62400000   18.01900000   -2.06000000
 C(Fragment=2)     13.99500000   18.40100000   -7.99900000
 C(Fragment=2)     13.79600000   19.35000000   -7.07300000
 C(Fragment=2)     13.36400000   18.68800000   -0.92000000
 H(Fragment=2)     13.77100000   17.12100000   -1.87200000
 C(Fragment=2)     14.03100000   18.88300000   -9.26900000
 N(Fragment=2)     13.61100000   20.55000000   -7.81400000
 C(Fragment=2)     13.31200000   20.11600000   -0.95500000
 C(Fragment=2)     13.16800000   18.28700000    0.49800000
 C(Fragment=2)     14.24700000   18.28200000  -10.47800000
 C(Fragment=2)     13.81000000   20.23700000   -9.17000000
 C(Fragment=2)     13.27445530   21.87117043   -7.26432159
 O(Fragment=2)     13.40900000   20.98800000   -1.81400000
 C(Fragment=2)     13.08100000   20.66100000    0.44800000
 C(Fragment=2)     13.16300000   17.04800000    0.80700000
 C(Fragment=2)     13.00100000   19.55400000    1.28400000
 N(Fragment=2)     14.40500000   16.87700000  -10.65400000
 C(Fragment=2)     14.07500000   18.90400000  -11.68100000
 C(Fragment=2)     13.81900000   21.08100000  -10.41400000
 H(Fragment=2)     12.53178529   21.76161056   -6.50186642
 H(Fragment=2)     14.15223886   22.31745430   -6.84572068
 H(Fragment=2)     12.89437392   22.49611432   -8.04527183
 C(Fragment=2)     12.90500000   21.93900000    0.96600000
 C(Fragment=2)     13.29400000   15.86400000    0.04000000
 C(Fragment=2)     13.01000000   16.76600000    2.40400000
 C(Fragment=2)     12.74200000   19.72300000    2.63800000
 S(Fragment=2)     14.48500000   16.68800000  -12.33500000
 N(Fragment=2)     14.25100000   18.21900000  -12.80400000
 C(Fragment=2)     13.90800000   20.31600000  -11.59500000
 N(Fragment=2)     13.74600000   22.42100000  -10.73200000
 H(Fragment=2)     12.96000000   22.67900000    0.40800000
 C(Fragment=2)     12.64800000   22.10700000    2.32300000
 N(Fragment=2)     13.43600000   14.90200000   -0.55300000
 N(Fragment=2)     12.90847588   16.57887712    3.46369943
 C(Fragment=2)     12.56600000   21.00000000    3.15900000
 H(Fragment=2)     12.68800000   18.98200000    3.19900000
 C(Fragment=2)     13.94300000   21.24400000  -12.64200000
 C(Fragment=2)     13.86300000   22.51100000  -12.12400000
 C(Fragment=2)     13.57791142   23.53817194   -9.79148254
 F(Fragment=2)     12.51700000   23.26000000    2.90200000
 F(Fragment=2)     12.34300000   21.11000000    4.51600000
 S(Fragment=2)     14.04800000   21.32900000  -14.38700000
 C(Fragment=2)     13.82500000   23.63300000  -13.07000000
 H(Fragment=2)     12.57860896   23.53513387   -9.40900985
 H(Fragment=2)     14.26980044   23.43045217   -8.98241763
 H(Fragment=2)     13.76297474   24.46210904  -10.29842613
 C(Fragment=2)     13.92400000   23.05200000  -14.34000000
 S(Fragment=2)     13.66700000   25.30100000  -13.06100000
 C(Fragment=2)     13.84800000   24.02000000  -15.33800000
 C(Fragment=2)     13.75700000   25.29600000  -14.79700000
 C(Fragment=2)     13.86292201   23.71505425  -16.84743215
 C(Fragment=2)     13.59400000   26.46100000  -15.63900000
 H(Fragment=2)     12.94165930   24.03778899  -17.28562996
 H(Fragment=2)     14.67783160   24.23342538  -17.30799022
 H(Fragment=2)     13.97964302   22.66207053  -16.99743713
 C(Fragment=2)     13.46200000   27.85200000  -15.44500000
 H(Fragment=2)     13.57000000   26.23500000  -16.54100000
 C(Fragment=2)     13.43700000   28.38100000  -14.12600000
 C(Fragment=2)     13.29100000   28.85800000  -16.52400000
 O(Fragment=2)     13.56400000   27.98800000  -13.00600000
 C(Fragment=2)     13.14000000   29.88300000  -14.41200000
 C(Fragment=2)     13.06300000   30.13600000  -15.77800000
 C(Fragment=2)     13.32900000   28.62800000  -17.74200000
 C(Fragment=2)     12.97600000   30.92300000  -13.50400000
 C(Fragment=2)     12.82200000   31.42600000  -16.23500000
 C(Fragment=2)     13.52400000   27.44800000  -18.50600000
 C(Fragment=2)     13.11800000   29.91600000  -18.56600000
 C(Fragment=2)     12.73600000   32.21500000  -13.96100000
 H(Fragment=2)     13.02800000   30.75600000  -12.59300000
 H(Fragment=2)     12.77100000   31.59600000  -17.14900000
 C(Fragment=2)     12.65900000   32.46600000  -15.32600000
 N(Fragment=2)     13.66300000   26.45600000  -19.09600000
 N(Fragment=2)     12.96213022   30.86747052  -19.17470474
 F(Fragment=2)     12.57500000   33.18300000  -13.02600000
 F(Fragment=2)     12.41600000   33.67400000  -15.73100000

Eps=5.0

