%nprocshared=24
%mem=188GB
%chk=r4.chk
# td=(nstates=20) cam-b3lyp/6-31+g(d,p) scrf=(iefpcm,read) nosymm int=(ultrafine,acc2e=11) iop(3/107=0010000000,3/108=0010000000,3/33=1,9/40=5) punch=mo tda

r4

0 1 0 1 0 1
 S(Fragment=1)      2.07859537   21.55747067   11.88054446
 N(Fragment=1)      2.15759537   21.36847067   10.19954446
 N(Fragment=1)      2.31159537   20.02647067   12.34954446
 C(Fragment=1)      2.31459537   19.96347067   10.02354446
 C(Fragment=1)      2.48759537   19.34147067   11.22654446
 C(Fragment=1)      2.53159537   19.36247067    8.81454446
 C(Fragment=1)      2.65559537   17.92947067   11.14054446
 C(Fragment=1)      2.75259537   18.00847067    8.71554446
 C(Fragment=1)      2.56859537   19.84447067    7.54454446
 C(Fragment=1)      2.61959537   17.00147067   12.18754446
 C(Fragment=1)      2.74359537   17.16447067    9.95954446
 N(Fragment=1)      2.95159537   17.69547067    7.35954446
 S(Fragment=1)      2.32459537   21.40147067    6.70954446
 C(Fragment=1)      2.76659537   18.89547067    6.61854446
 S(Fragment=1)      2.51559537   16.91647067   13.93254446
 C(Fragment=1)      2.69959537   15.73547067   11.66954446
 N(Fragment=1)      2.81659537   15.82447067   10.27754446
 C(Fragment=1)      3.28814007   16.37430024    6.80986605
 C(Fragment=1)      2.58059537   20.62047067    5.24754446
 C(Fragment=1)      2.81859537   19.23947067    5.25854446
 C(Fragment=1)      2.63859537   15.19347067   13.88554446
 C(Fragment=1)      2.73859537   14.61247067   12.61554446
 C(Fragment=1)      2.98460839   14.70695651    9.33742015
 H(Fragment=1)      4.05255316   15.92347226    7.40763420
 H(Fragment=1)      2.41715419   15.75281869    6.81652054
 H(Fragment=1)      3.63968068   16.48494191    5.80533750
 C(Fragment=1)      2.62459537   21.07947067    3.89054446
 S(Fragment=1)      3.02559537   18.47147067    3.77354446
 C(Fragment=1)      2.71459537   14.22547067   14.88354446
 S(Fragment=1)      2.89559537   12.94447067   12.60654446
 H(Fragment=1)      3.92177437   14.22431222    9.52092608
 H(Fragment=1)      2.18904254   14.00434397    9.47273683
 H(Fragment=1)      2.96530341   15.07878502    8.33428962
 C(Fragment=1)      2.81959537   20.00147067    2.99954446
 C(Fragment=1)      2.47873503   22.55130486    3.46155860
 C(Fragment=1)      2.80559537   12.94947067   14.34254446
 C(Fragment=1)      2.69967336   14.53041642   16.39297661
 C(Fragment=1)      2.93959537   20.22647067    1.60554446
 H(Fragment=1)      3.40555738   22.89759294    3.05414617
 H(Fragment=1)      1.71097863   22.63247289    2.72070648
 H(Fragment=1)      2.21832457   23.14648639    4.31176173
 C(Fragment=1)      2.96959537   11.78447067   15.18454446
 H(Fragment=1)      1.88505993   14.01165297   16.85361687
 H(Fragment=1)      3.62113509   14.20812992   16.83108583
 H(Fragment=1)      2.58245717   15.58334422   16.54298799
 C(Fragment=1)      3.19859537   19.55747067    0.46554446
 H(Fragment=1)      2.79259537   21.12447067    1.41754446
 C(Fragment=1)      3.10159537   10.39347067   14.99054446
 H(Fragment=1)      2.99359537   12.01047067   16.08654446
 C(Fragment=1)      3.25059537   18.12947067    0.50054446
 C(Fragment=1)      3.39459537   19.95847067   -0.95245554
 C(Fragment=1)      3.12559537    9.86447067   13.67154446
 C(Fragment=1)      3.27159537    9.38747067   16.06954446
 O(Fragment=1)      3.15359537   17.25747067    1.35954446
 C(Fragment=1)      3.48159537   17.58447067   -0.90245554
 C(Fragment=1)      3.39959537   21.19747067   -1.26145554
 C(Fragment=1)      3.56259537   18.69147067   -1.73845554
 O(Fragment=1)      2.99859537   10.25747067   12.55154446
 C(Fragment=1)      3.42359537    8.36247067   13.95754446
 C(Fragment=1)      3.50059537    8.10947067   15.32354446
 C(Fragment=1)      3.23459537    9.61747067   17.28754446
 C(Fragment=1)      3.65759537   16.30647067   -1.42045554
 C(Fragment=1)      3.26859537   22.38147067   -0.49445554
 C(Fragment=1)      3.55359537   21.47947067   -2.85845554
 C(Fragment=1)      3.82059537   18.52247067   -3.09245554
 C(Fragment=1)      3.58659537    7.32247067   13.04954446
 C(Fragment=1)      3.74159537    6.81947067   15.78054446
 C(Fragment=1)      3.03859537   10.79747067   18.05154446
 C(Fragment=1)      3.44559537    8.32947067   18.11154446
 H(Fragment=1)      3.60259537   15.56647067   -0.86245554
 C(Fragment=1)      3.91559537   16.13847067   -2.77745554
 N(Fragment=1)      3.12759537   23.34347067    0.09854446
 N(Fragment=1)      3.65576642   21.66656310   -3.91798256
 C(Fragment=1)      3.99659537   17.24547067   -3.61345554
 H(Fragment=1)      3.87459537   19.26347067   -3.65345554
 C(Fragment=1)      3.82659537    6.03047067   13.50654446
 H(Fragment=1)      3.53559537    7.48947067   12.13854446
 H(Fragment=1)      3.79159537    6.64947067   16.69454446
 C(Fragment=1)      3.90359537    5.77947067   14.87154446
 N(Fragment=1)      2.90059537   11.78947067   18.64154446
 N(Fragment=1)      3.60145358    7.37807078   18.72020402
 F(Fragment=1)      4.04559537   14.98547067   -3.35645554
 F(Fragment=1)      4.22059537   17.13547067   -4.97045554
 F(Fragment=1)      3.98859537    5.06247067   12.57154446
 F(Fragment=1)      4.14759537    4.57147067   15.27654446
 H(Fragment=2)     11.55234496   17.42996587   11.64350901
 C(Fragment=2)     12.47386595   17.10783881   12.08161084
 H(Fragment=2)     13.28839823   17.62662128   11.62084851
 H(Fragment=2)     12.59118361   16.05490172   11.93174400
 C(Fragment=2)     12.45900000   17.41300000   13.59100000
 C(Fragment=2)     12.53500000   16.44500000   14.58900000
 C(Fragment=2)     12.36800000   18.69000000   14.13200000
 S(Fragment=2)     12.65800000   14.72300000   14.54100000
 C(Fragment=2)     12.43500000   17.02600000   15.85900000
 S(Fragment=2)     12.27800000   18.69500000   15.86800000
 C(Fragment=2)     12.20400000   19.85500000   13.29000000
 C(Fragment=2)     12.55400000   14.63800000   16.28700000
 C(Fragment=2)     12.47400000   15.90400000   16.80500000
 C(Fragment=2)     12.07200000   21.24600000   13.48400000
 H(Fragment=2)     12.18000000   19.62900000   12.38700000
 C(Fragment=2)     12.51800000   13.71000000   17.33400000
 N(Fragment=2)     12.35700000   15.81500000   18.19600000
 C(Fragment=2)     12.04800000   21.77400000   14.80300000
 C(Fragment=2)     11.90200000   22.25200000   12.40500000
 C(Fragment=2)     12.68600000   12.29800000   17.24700000
 C(Fragment=2)     12.43000000   14.47500000   18.51400000
 C(Fragment=2)     12.18890925   16.93248904   19.13614027
 O(Fragment=2)     12.17500000   21.38200000   15.92200000
 C(Fragment=2)     11.75000000   23.27700000   14.51600000
 C(Fragment=2)     11.67300000   23.53000000   13.15100000
 C(Fragment=2)     11.93900000   22.02200000   11.18700000
 N(Fragment=2)     12.86200000   11.61300000   16.12500000
 C(Fragment=2)     12.85900000   11.67600000   18.45100000
 C(Fragment=2)     12.42100000   13.63000000   19.75800000
 H(Fragment=2)     11.18980069   16.92918412   19.51911699
 H(Fragment=2)     12.88125093   16.82539797   19.94490136
 H(Fragment=2)     12.37332442   17.85629513   18.62872194
 C(Fragment=2)     11.58700000   24.31700000   15.42500000
 C(Fragment=2)     11.43200000   24.82000000   12.69400000
 C(Fragment=2)     12.13500000   20.84100000   10.42300000
 C(Fragment=2)     11.72800000   23.31000000   10.36200000
 S(Fragment=2)     13.09500000   10.08200000   16.59300000
 N(Fragment=2)     13.01600000   10.27100000   18.27400000
 C(Fragment=2)     12.64200000   12.27600000   19.66000000
 N(Fragment=2)     12.22300000   13.94400000   21.11500000
 C(Fragment=2)     11.34700000   25.60900000   14.96800000
 H(Fragment=2)     11.63800000   24.15000000   16.33600000
 H(Fragment=2)     11.38200000   24.98900000   11.78000000
 C(Fragment=2)     11.27000000   25.86000000   13.60200000
 N(Fragment=2)     12.27300000   19.84900000    9.83300000
 N(Fragment=2)     11.57226997   24.26061745    9.75310295
 C(Fragment=2)     12.60600000   11.79500000   20.93000000
 C(Fragment=2)     12.40800000   12.74300000   21.85500000
 C(Fragment=2)     11.88780286   15.26529765   21.66519579
 F(Fragment=2)     11.18500000   26.57700000   15.90200000
 F(Fragment=2)     11.02600000   27.06800000   13.19700000
 S(Fragment=2)     12.85000000   10.23700000   21.76500000
 C(Fragment=2)     12.35600000   12.40000000   23.21500000
 H(Fragment=2)     11.14356802   15.15640627   22.42621955
 H(Fragment=2)     12.76561890   15.70967200   22.08575548
 H(Fragment=2)     11.51023474   15.89157516   20.88409478
 C(Fragment=2)     12.59400000   11.01800000   23.22700000
 S(Fragment=2)     12.14900000   13.16800000   24.70000000
 C(Fragment=2)     12.55000000   10.56000000   24.58300000
 C(Fragment=2)     12.35500000   11.63800000   25.47400000
 C(Fragment=2)     12.69586981    9.08826173   25.01231161
 C(Fragment=2)     12.23500000   11.41300000   26.86900000
 H(Fragment=2)     13.46364062    9.00725969   25.75316696
 H(Fragment=2)     11.76905562    8.74206389   25.41981930
 H(Fragment=2)     12.95626425    8.49289062   24.16223633
 C(Fragment=2)     11.97600000   12.08200000   28.00900000
 H(Fragment=2)     12.38200000   10.51500000   27.05700000
 C(Fragment=2)     11.92400000   13.51000000   27.97400000
 C(Fragment=2)     11.77900000   11.68000000   29.42600000
 O(Fragment=2)     12.02100000   14.38200000   27.11500000
 C(Fragment=2)     11.69200000   14.05400000   29.37700000
 C(Fragment=2)     11.77400000   10.44200000   29.73600000
 C(Fragment=2)     11.61100000   12.94800000   30.21300000
 C(Fragment=2)     11.51600000   15.33200000   29.89500000
 C(Fragment=2)     11.90500000    9.25800000   28.96900000
 C(Fragment=2)     11.62000000   10.15900000   31.33200000
 C(Fragment=2)     11.35300000   13.11700000   31.56700000
 H(Fragment=2)     11.57100000   16.07300000   29.33600000
 C(Fragment=2)     11.25800000   15.50100000   31.25100000
 N(Fragment=2)     12.04700000    8.29600000   28.37600000
 N(Fragment=2)     11.51781592    9.97122016   32.39099865
 C(Fragment=2)     11.17700000   14.39400000   32.08700000
 H(Fragment=2)     11.29900000   12.37600000   32.12800000
 F(Fragment=2)     11.12800000   16.65400000   31.83000000
 F(Fragment=2)     10.95300000   14.50400000   33.44400000

Eps=5.0

