%nprocshared=24
%mem=188GB
%chk=r5.chk
# td=(nstates=20) cam-b3lyp/6-31+g(d,p) scrf=(iefpcm,read) nosymm int=(ultrafine,acc2e=11) iop(3/107=0010000000,3/108=0010000000,3/33=1,9/40=5) punch=mo tda

r5

0 1 0 1 0 1
 S(Fragment=1)      2.71571590   19.04315366   11.99475645
 N(Fragment=1)      2.79471590   18.85415366   10.31375645
 N(Fragment=1)      2.94871590   17.51215366   12.46375645
 C(Fragment=1)      2.95171590   17.44915366   10.13775645
 C(Fragment=1)      3.12471590   16.82715366   11.34075645
 C(Fragment=1)      3.16871590   16.84815366    8.92875645
 C(Fragment=1)      3.29271590   15.41515366   11.25475645
 C(Fragment=1)      3.38971590   15.49415366    8.82975645
 C(Fragment=1)      3.20571590   17.33015366    7.65875645
 C(Fragment=1)      3.25671590   14.48715366   12.30175645
 C(Fragment=1)      3.38071590   14.65015366   10.07375645
 N(Fragment=1)      3.58871590   15.18115366    7.47375645
 S(Fragment=1)      2.96171590   18.88715366    6.82375645
 C(Fragment=1)      3.40371590   16.38115366    6.73275645
 S(Fragment=1)      3.15271590   14.40215366   14.04675645
 C(Fragment=1)      3.33671590   13.22115366   11.78375645
 N(Fragment=1)      3.45371590   13.31015366   10.39175645
 C(Fragment=1)      3.92526060   13.85998323    6.92407804
 C(Fragment=1)      3.21771590   18.10615366    5.36175645
 C(Fragment=1)      3.45571590   16.72515366    5.37275645
 C(Fragment=1)      3.27571590   12.67915366   13.99975645
 C(Fragment=1)      3.37571590   12.09815366   12.72975645
 C(Fragment=1)      3.62172892   12.19263950    9.45163214
 H(Fragment=1)      4.68977347   13.40921500    7.52176365
 H(Fragment=1)      3.05430843   13.23845586    6.93086331
 H(Fragment=1)      4.27666773   13.97061097    5.91950125
 C(Fragment=1)      3.26171590   18.56515366    4.00475645
 S(Fragment=1)      3.66271590   15.95715366    3.88775645
 C(Fragment=1)      3.35171590   11.71115366   14.99775645
 S(Fragment=1)      3.53271590   10.43015366   12.72075645
 H(Fragment=1)      4.55855751   11.70952863    9.63563239
 H(Fragment=1)      2.82574791   11.49039818    9.58643336
 H(Fragment=1)      3.60317649   12.56456337    8.44852275
 C(Fragment=1)      3.45671590   17.48715366    3.11375645
 C(Fragment=1)      3.11585556   20.03698785    3.57577059
 C(Fragment=1)      3.44271590   10.43515366   14.45675645
 C(Fragment=1)      3.33679389   12.01609941   16.50718860
 C(Fragment=1)      3.57671590   17.71215366    1.71975645
 H(Fragment=1)      4.04267791   20.38327593    3.16835816
 H(Fragment=1)      2.34809916   20.11815588    2.83491847
 H(Fragment=1)      2.85544510   20.63216938    4.42597372
 C(Fragment=1)      3.60671590    9.27015366   15.29875645
 H(Fragment=1)      2.52215430   11.49737061   16.96782160
 H(Fragment=1)      4.25823805   11.69377331   16.94530564
 H(Fragment=1)      3.21962143   13.06903216   16.65719941
 C(Fragment=1)      3.83571590   17.04315366    0.57975645
 H(Fragment=1)      3.42971590   18.61015366    1.53175645
 C(Fragment=1)      3.73871590    7.87915366   15.10475645
 H(Fragment=1)      3.63071590    9.49615366   16.20075645
 C(Fragment=1)      3.88771590   15.61515366    0.61475645
 C(Fragment=1)      4.03171590   17.44415366   -0.83824355
 C(Fragment=1)      3.76271590    7.35015366   13.78575645
 C(Fragment=1)      3.90871590    6.87315366   16.18375645
 O(Fragment=1)      3.79071590   14.74315366    1.47375645
 C(Fragment=1)      4.11871590   15.07015366   -0.78824355
 C(Fragment=1)      4.03671590   18.68315366   -1.14724355
 C(Fragment=1)      4.19971590   16.17715366   -1.62424355
 O(Fragment=1)      3.63571590    7.74315366   12.66575645
 C(Fragment=1)      4.06071590    5.84815366   14.07175645
 C(Fragment=1)      4.13771590    5.59515366   15.43775645
 C(Fragment=1)      3.87171590    7.10315366   17.40175645
 C(Fragment=1)      4.29471590   13.79215366   -1.30624355
 C(Fragment=1)      3.90571590   19.86715366   -0.38024355
 C(Fragment=1)      4.19071590   18.96515366   -2.74424355
 C(Fragment=1)      4.45771590   16.00815366   -2.97824355
 C(Fragment=1)      4.22371590    4.80815366   13.16375645
 C(Fragment=1)      4.37871590    4.30515366   15.89475645
 C(Fragment=1)      3.67571590    8.28315366   18.16575645
 C(Fragment=1)      4.08271590    5.81515366   18.22575645
 H(Fragment=1)      4.23971590   13.05215366   -0.74824355
 C(Fragment=1)      4.55271590   13.62415366   -2.66324355
 N(Fragment=1)      3.76471590   20.82915366    0.21275645
 N(Fragment=1)      4.29288695   19.15224609   -3.80377057
 C(Fragment=1)      4.63371590   14.73115366   -3.49924355
 H(Fragment=1)      4.51171590   16.74915366   -3.53924355
 C(Fragment=1)      4.46371590    3.51615366   13.62075645
 H(Fragment=1)      4.17271590    4.97515366   12.25275645
 H(Fragment=1)      4.42871590    4.13515366   16.80875645
 C(Fragment=1)      4.54071590    3.26515366   14.98575645
 N(Fragment=1)      3.53771590    9.27515366   18.75575645
 N(Fragment=1)      4.23857411    4.86375377   18.83441601
 F(Fragment=1)      4.68271590   12.47115366   -3.24224355
 F(Fragment=1)      4.85771590   14.62115366   -4.85624355
 F(Fragment=1)      4.62571590    2.54815366   12.68575645
 F(Fragment=1)      4.78471590    2.05715366   15.39075645
 F(Fragment=2)     13.43400000    7.05000000   15.90200000
 C(Fragment=2)     13.59600000    6.08200000   14.96800000
 C(Fragment=2)     13.51900000    6.33300000   13.60200000
 C(Fragment=2)     13.83600000    4.79000000   15.42500000
 F(Fragment=2)     13.27500000    7.54100000   13.19700000
 C(Fragment=2)     13.68100000    5.29300000   12.69400000
 C(Fragment=2)     13.99900000    3.75000000   14.51600000
 H(Fragment=2)     13.88700000    4.62300000   16.33600000
 C(Fragment=2)     13.92200000    4.00300000   13.15100000
 H(Fragment=2)     13.63100000    5.46200000   11.78000000
 C(Fragment=2)     14.29700000    2.24700000   14.80300000
 C(Fragment=2)     14.15100000    2.72500000   12.40500000
 O(Fragment=2)     14.42400000    1.85500000   15.92200000
 C(Fragment=2)     14.32100000    1.71900000   13.48400000
 C(Fragment=2)     14.18800000    2.49500000   11.18700000
 C(Fragment=2)     14.45300000    0.32800000   13.29000000
 C(Fragment=2)     14.38400000    1.31400000   10.42300000
 C(Fragment=2)     13.97700000    3.78300000   10.36200000
 H(Fragment=2)     14.42900000    0.10200000   12.38700000
 C(Fragment=2)     14.61700000   -0.83700000   14.13200000
 N(Fragment=2)     14.52200000    0.32200000    9.83300000
 N(Fragment=2)     13.82126997    4.73361745    9.75310295
 S(Fragment=2)     14.52700000   -0.83200000   15.86800000
 C(Fragment=2)     14.70800000   -2.11400000   13.59100000
 C(Fragment=2)     14.68400000   -2.50100000   15.85900000
 C(Fragment=2)     14.78400000   -3.08200000   14.58900000
 C(Fragment=2)     14.72286595   -2.41916119   12.08161084
 C(Fragment=2)     14.72300000   -3.62300000   16.80500000
 S(Fragment=2)     14.90700000   -4.80400000   14.54100000
 H(Fragment=2)     13.80134496   -2.09703413   11.64350901
 H(Fragment=2)     15.53739823   -1.90037872   11.62084851
 H(Fragment=2)     14.84018361   -3.47209828   11.93174400
 N(Fragment=2)     14.60600000   -3.71200000   18.19600000
 C(Fragment=2)     14.80300000   -4.88900000   16.28700000
 C(Fragment=2)     14.67900000   -5.05200000   18.51400000
 C(Fragment=2)     14.43790925   -2.59451096   19.13614027
 C(Fragment=2)     14.76700000   -5.81700000   17.33400000
 C(Fragment=2)     14.67000000   -5.89700000   19.75800000
 H(Fragment=2)     13.43880069   -2.59781588   19.51911699
 H(Fragment=2)     15.13025093   -2.70160203   19.94490136
 H(Fragment=2)     14.62232442   -1.67070487   18.62872194
 C(Fragment=2)     14.93500000   -7.22900000   17.24700000
 N(Fragment=2)     14.47200000   -5.58300000   21.11500000
 C(Fragment=2)     14.89100000   -7.25100000   19.66000000
 N(Fragment=2)     15.11100000   -7.91400000   16.12500000
 C(Fragment=2)     15.10800000   -7.85100000   18.45100000
 C(Fragment=2)     14.65700000   -6.78400000   21.85500000
 C(Fragment=2)     14.13680286   -4.26170235   21.66519579
 C(Fragment=2)     14.85500000   -7.73200000   20.93000000
 S(Fragment=2)     15.34400000   -9.44500000   16.59300000
 N(Fragment=2)     15.26500000   -9.25600000   18.27400000
 C(Fragment=2)     14.60500000   -7.12700000   23.21500000
 H(Fragment=2)     13.39256928   -4.37059391   22.42622076
 H(Fragment=2)     15.01461927   -3.81732726   22.08575392
 H(Fragment=2)     13.75923310   -3.63542540   20.88409512
 S(Fragment=2)     15.09900000   -9.29000000   21.76500000
 S(Fragment=2)     14.39800000   -6.35900000   24.70000000
 C(Fragment=2)     14.84300000   -8.50900000   23.22700000
 C(Fragment=2)     14.60400000   -7.88900000   25.47400000
 C(Fragment=2)     14.79900000   -8.96700000   24.58300000
 C(Fragment=2)     14.48400000   -8.11400000   26.86900000
 C(Fragment=2)     14.94486981  -10.43873827   25.01231161
 C(Fragment=2)     14.22500000   -7.44500000   28.00900000
 H(Fragment=2)     14.63100000   -9.01200000   27.05700000
 H(Fragment=2)     15.71268489  -10.51974960   25.75312007
 H(Fragment=2)     14.01807454  -10.78491693   25.41987862
 H(Fragment=2)     15.20520107  -11.03411927   24.16222391
 C(Fragment=2)     14.17300000   -6.01700000   27.97400000
 C(Fragment=2)     14.02800000   -7.84700000   29.42600000
 O(Fragment=2)     14.27000000   -5.14500000   27.11500000
 C(Fragment=2)     13.94100000   -5.47300000   29.37700000
 C(Fragment=2)     14.02300000   -9.08500000   29.73600000
 C(Fragment=2)     13.86000000   -6.57900000   30.21300000
 C(Fragment=2)     13.76500000   -4.19500000   29.89500000
 C(Fragment=2)     14.15500000  -10.26900000   28.96900000
 C(Fragment=2)     13.86900000   -9.36800000   31.33200000
 C(Fragment=2)     13.60200000   -6.41000000   31.56700000
 H(Fragment=2)     13.82000000   -3.45400000   29.33600000
 C(Fragment=2)     13.50700000   -4.02600000   31.25100000
 N(Fragment=2)     14.29600000  -11.23100000   28.37600000
 N(Fragment=2)     13.76681592   -9.55577984   32.39099865
 C(Fragment=2)     13.42600000   -5.13300000   32.08700000
 H(Fragment=2)     13.54800000   -7.15100000   32.12800000
 F(Fragment=2)     13.37700000   -2.87300000   31.83000000
 F(Fragment=2)     13.20200000   -5.02300000   33.44400000

Eps=5.0

