%nprocshared=24
%mem=188GB
%chk=r6.chk
# td=(nstates=20) cam-b3lyp/6-31+g(d,p) scrf=(iefpcm,read) nosymm int=(ultrafine,acc2e=11) iop(3/107=0010000000,3/108=0010000000,3/33=1,9/40=5) punch=mo tda

r6

0 1 0 1 0 1
 S(Fragment=1)     13.13088083    8.39982869   12.55266929
 C(Fragment=1)     13.39688083    6.71582869   12.65866929
 C(Fragment=1)     13.04188083    8.52682869   14.28766929
 C(Fragment=1)     13.57388083    5.64882869   11.75366929
 C(Fragment=1)     13.41488083    6.28782869   13.95166929
 C(Fragment=1)     12.81388083    9.69782869   15.02466929
 C(Fragment=1)     13.22488083    7.26282869   14.93266929
 N(Fragment=1)     13.54988083    5.45182869   10.39666929
 C(Fragment=1)     13.71188083    4.41182869   12.42466929
 S(Fragment=1)     13.66888083    4.52682869   14.10666929
 C(Fragment=1)     12.64088083   11.03482869   14.75366929
 H(Fragment=1)     12.76788083    9.52682869   15.93666929
 C(Fragment=1)     13.21407947    7.01890374   16.45319024
 C(Fragment=1)     13.72588083    4.03382869   10.12166929
 C(Fragment=1)     13.37473024    6.50290299    9.38401679
 C(Fragment=1)     13.78788083    3.44282869   11.37766929
 C(Fragment=1)     12.56988083   11.51882869   13.48066929
 C(Fragment=1)     12.37988083   12.14482869   15.62066929
 H(Fragment=1)     13.97433585    7.61342580   16.91520080
 H(Fragment=1)     12.25846503    7.28978212   16.85109218
 H(Fragment=1)     13.40193270    5.98402301   16.64974314
 C(Fragment=1)     13.82588083    3.24882869    8.97866929
 H(Fragment=1)     12.44767457    7.00984003    9.55278477
 H(Fragment=1)     14.18144992    7.20245178    9.45282696
 H(Fragment=1)     13.36757570    6.06148448    8.40933811
 C(Fragment=1)     13.94888083    2.06682869   11.49266929
 O(Fragment=1)     12.72388083   10.99782869   12.34366929
 C(Fragment=1)     12.32588083   13.01882869   13.47166929
 C(Fragment=1)     12.35288083   12.05882869   17.00066929
 C(Fragment=1)     12.18288083   13.38882869   14.82566929
 C(Fragment=1)     13.98688083    1.87282869    9.09166929
 N(Fragment=1)     13.80688083    3.60282869    7.57066929
 N(Fragment=1)     14.03988083    1.31882869   12.65566929
 C(Fragment=1)     14.04688083    1.28182869   10.34766929
 C(Fragment=1)     12.12688083   13.97782869   12.50266929
 C(Fragment=1)     12.48588083   10.90382869   17.72966929
 C(Fragment=1)     12.13288083   13.13082869   17.81966929
 C(Fragment=1)     11.90288083   14.70482869   15.22166929
 C(Fragment=1)     14.09888083    1.35382869    7.74066929
 C(Fragment=1)     13.97288083    2.37182869    6.89866929
 C(Fragment=1)     13.65036918    4.93931986    6.97889615
 S(Fragment=1)     14.20788083   -0.20417131   12.19266929
 N(Fragment=1)     14.23488083   -0.06917131   10.58466929
 C(Fragment=1)     11.87988083   15.24782869   12.93666929
 H(Fragment=1)     12.15888083   13.77082869   11.59666929
 N(Fragment=1)     12.64288083    9.94582869   18.40966929
 N(Fragment=1)     11.94988083   14.11182869   18.51966929
 H(Fragment=1)     11.85788083   14.95182869   16.11566929
 C(Fragment=1)     11.71088083   15.56482869   14.26166929
 S(Fragment=1)     14.31888083   -0.19317131    7.04766929
 C(Fragment=1)     14.11488083    1.92382869    5.56866929
 H(Fragment=1)     12.71715148    5.36016047    7.29018042
 H(Fragment=1)     14.45183164    5.56936196    7.30386519
 H(Fragment=1)     13.66820102    4.86125683    5.91189653
 F(Fragment=1)     11.71288083   16.22282869   11.99666929
 F(Fragment=1)     11.45588083   16.83982869   14.49266929
 C(Fragment=1)     14.31788083    0.64182869    5.44666929
 S(Fragment=1)     14.17188083    2.70082869    3.98866929
 C(Fragment=1)     14.45888083    0.01882869    4.30166929
 C(Fragment=1)     14.41988083    1.06782869    3.33266929
 C(Fragment=1)     14.62736759   -1.49240837    4.05799994
 C(Fragment=1)     14.60288083    0.83882869    1.90566929
 H(Fragment=1)     13.86069614   -1.83436321    3.39453797
 H(Fragment=1)     15.58622200   -1.67851987    3.62112384
 H(Fragment=1)     14.55225005   -2.01435697    4.98903539
 C(Fragment=1)     14.66788083    1.66182869    0.81566929
 H(Fragment=1)     14.69488083   -0.06117131    1.69166929
 C(Fragment=1)     14.93788083    1.21682869   -0.68033071
 C(Fragment=1)     14.65288083    3.06782869    0.74866929
 C(Fragment=1)     15.04488083    2.45082869   -1.43233071
 C(Fragment=1)     15.11788083   -0.05817131   -1.01533071
 O(Fragment=1)     14.43688083    3.89082869    1.67466929
 C(Fragment=1)     14.84388083    3.58482869   -0.65133071
 C(Fragment=1)     15.23788083    2.57682869   -2.80333071
 C(Fragment=1)     14.99688083   -1.23417131   -0.26033071
 C(Fragment=1)     15.43288083   -0.34917131   -2.36333071
 C(Fragment=1)     14.83688083    4.84182869   -1.24133071
 H(Fragment=1)     15.37188083    1.81882869   -3.32433071
 C(Fragment=1)     15.23088083    3.83382869   -3.39333071
 N(Fragment=1)     14.86288083   -2.21317131    0.38466929
 N(Fragment=1)     15.65388083   -0.57517131   -3.49733071
 C(Fragment=1)     15.02988083    4.96782869   -2.61233071
 H(Fragment=1)     14.70188083    5.59982869   -0.72033071
 F(Fragment=1)     15.35988083    4.11282869   -4.70133071
 F(Fragment=1)     15.06988083    6.20482869   -3.09533071
 C(Fragment=2)      5.00600000   -3.34500000    2.36900000
 C(Fragment=2)      4.80500000   -2.21100000    3.15000000
 C(Fragment=2)      5.19900000   -3.21900000    0.99800000
 F(Fragment=2)      4.96500000   -4.58200000    2.85200000
 C(Fragment=2)      4.79700000   -0.95400000    2.56000000
 F(Fragment=2)      4.67500000   -2.49000000    4.45800000
 C(Fragment=2)      5.19100000   -1.96200000    0.40800000
 H(Fragment=2)      5.33300000   -3.97700000    0.47700000
 C(Fragment=2)      4.99000000   -0.82800000    1.18900000
 H(Fragment=2)      4.66300000   -0.19600000    3.08100000
 C(Fragment=2)      5.38200000   -1.44500000   -0.99200000
 C(Fragment=2)      5.09700000    0.40600000    0.43700000
 O(Fragment=2)      5.59800000   -2.26800000   -1.91800000
 C(Fragment=2)      5.36700000   -0.03900000   -1.05900000
 C(Fragment=2)      4.91700000    1.68100000    0.77200000
 C(Fragment=2)      5.43300000    0.78400000   -2.14900000
 C(Fragment=2)      5.03800000    2.85700000    0.01700000
 C(Fragment=2)      4.60200000    1.97200000    2.12000000
 C(Fragment=2)      5.61600000    0.55500000   -3.57600000
 H(Fragment=2)      5.34000000    1.68400000   -1.93500000
 N(Fragment=2)      5.17300000    3.83600000   -0.62800000
 N(Fragment=2)      4.38100000    2.19800000    3.25400000
 S(Fragment=2)      5.86300000   -1.07800000   -4.23200000
 C(Fragment=2)      5.57600000    1.60400000   -4.54500000
 C(Fragment=2)      5.92000000   -0.30100000   -5.81200000
 C(Fragment=2)      5.71700000    0.98100000   -5.69000000
 C(Fragment=2)      5.40664818    3.11513979   -4.30132707
 C(Fragment=2)      6.06200000   -0.74900000   -7.14200000
 S(Fragment=2)      5.71600000    1.81600000   -7.29100000
 H(Fragment=2)      4.44797033    3.30062796   -3.86379888
 H(Fragment=2)      6.17354611    3.45766938   -3.63842357
 H(Fragment=2)      5.48076163    3.63706937   -5.23245365
 C(Fragment=2)      5.93600000    0.26900000   -7.98400000
 N(Fragment=2)      6.22800000   -1.98000000   -7.81400000
 C(Fragment=2)      6.04800000   -0.25000000   -9.33500000
 C(Fragment=2)      6.20900000   -1.62600000   -9.22200000
 C(Fragment=2)      6.38451165   -3.31649117   -7.22222686
 C(Fragment=2)      5.98800000    0.34100000  -10.59100000
 C(Fragment=2)      6.30900000   -2.41100000  -10.36500000
 H(Fragment=2)      6.88585376   -3.23315350   -6.28062666
 H(Fragment=2)      5.42035937   -3.75660665   -7.07522770
 H(Fragment=2)      6.96124525   -3.93253307   -7.88007998
 N(Fragment=2)      5.80100000    1.69200000  -10.82800000
 C(Fragment=2)      6.08700000   -0.44400000  -11.73600000
 N(Fragment=2)      6.48500000   -3.82900000  -10.64000000
 C(Fragment=2)      6.24700000   -1.82000000  -11.62100000
 S(Fragment=2)      5.82700000    1.82700000  -12.43600000
 N(Fragment=2)      5.99500000    0.30400000  -12.89900000
 C(Fragment=2)      6.46100000   -4.02600000  -11.99700000
 C(Fragment=2)      6.66015059   -4.88007430   -9.62734750
 C(Fragment=2)      6.32300000   -2.78900000  -12.66800000
 C(Fragment=2)      6.63800000   -5.09300000  -12.90200000
 H(Fragment=2)      7.54827025   -4.68689524   -9.06270130
 H(Fragment=2)      5.81494615   -4.88762105   -8.97124347
 H(Fragment=2)      6.74472590   -5.83077399  -10.11099727
 S(Fragment=2)      6.36600000   -2.90400000  -14.35000000
 S(Fragment=2)      6.90400000   -6.77700000  -12.79600000
 C(Fragment=2)      6.62100000   -4.66500000  -14.19500000
 C(Fragment=2)      6.99300000   -6.90400000  -14.53100000
 C(Fragment=2)      6.81000000   -5.64000000  -15.17600000
 C(Fragment=2)      7.22100000   -8.07500000  -15.26800000
 C(Fragment=2)      6.81987406   -5.39617542  -16.69654335
 C(Fragment=2)      7.39400000   -9.41200000  -14.99700000
 H(Fragment=2)      7.26700000   -7.90400000  -16.18000000
 H(Fragment=2)      7.77542836   -5.66655969  -17.09492548
 H(Fragment=2)      6.05970131   -5.99114485  -17.15811542
 H(Fragment=2)      6.63135304   -4.36141117  -16.89307012
 C(Fragment=2)      7.46600000   -9.89600000  -13.72400000
 C(Fragment=2)      7.65500000  -10.52200000  -15.86400000
 O(Fragment=2)      7.31100000   -9.37500000  -12.58700000
 C(Fragment=2)      7.70900000  -11.39600000  -13.71500000
 C(Fragment=2)      7.68200000  -10.43600000  -17.24400000
 C(Fragment=2)      7.85200000  -11.76600000  -15.06900000
 C(Fragment=2)      7.90800000  -12.35500000  -12.74600000
 C(Fragment=2)      7.55000000   -9.28100000  -17.97300000
 C(Fragment=2)      7.90200000  -11.50800000  -18.06300000
 C(Fragment=2)      8.13200000  -13.08200000  -15.46500000
 C(Fragment=2)      8.15500000  -13.62500000  -13.18000000
 H(Fragment=2)      7.87600000  -12.14800000  -11.84000000
 N(Fragment=2)      7.39200000   -8.32300000  -18.65300000
 N(Fragment=2)      8.08500000  -12.48900000  -18.76300000
 H(Fragment=2)      8.17700000  -13.32900000  -16.35900000
 C(Fragment=2)      8.32400000  -13.94200000  -14.50500000
 F(Fragment=2)      8.32300000  -14.60000000  -12.24000000
 H(Fragment=2)      8.62586068  -14.93636461  -14.75998854

Eps=5.0

