%nprocshared=24
%mem=188GB
%chk=r7.chk
# td=(nstates=20) cam-b3lyp/6-31+g(d,p) scrf=(iefpcm,read) nosymm int=(ultrafine,acc2e=11) iop(3/107=0010000000,3/108=0010000000,3/33=1,9/40=5) punch=mo tda

r7

0 1 0 1 0 1
 S(Fragment=1)     12.97801815    6.12573931   14.13998095
 C(Fragment=1)     13.24401815    4.44173931   14.24598095
 C(Fragment=1)     12.88901815    6.25273931   15.87498095
 C(Fragment=1)     13.42101815    3.37473931   13.34098095
 C(Fragment=1)     13.26201815    4.01373931   15.53898095
 C(Fragment=1)     12.66101815    7.42373931   16.61198095
 C(Fragment=1)     13.07201815    4.98873931   16.51998095
 N(Fragment=1)     13.39701815    3.17773931   11.98398095
 C(Fragment=1)     13.55901815    2.13773931   14.01198095
 S(Fragment=1)     13.51601815    2.25273931   15.69398095
 C(Fragment=1)     12.48801815    8.76073931   16.34098095
 H(Fragment=1)     12.61501815    7.25273931   17.52398095
 C(Fragment=1)     13.06121679    4.74481436   18.04050190
 C(Fragment=1)     13.57301815    1.75973931   11.70898095
 C(Fragment=1)     13.22186756    4.22881361   10.97132845
 C(Fragment=1)     13.63501815    1.16873931   12.96498095
 C(Fragment=1)     12.41701815    9.24473931   15.06798095
 C(Fragment=1)     12.22701815    9.87073931   17.20798095
 H(Fragment=1)     13.82140979    5.33940879   18.50252362
 H(Fragment=1)     12.10557063    5.01560243   18.43838912
 H(Fragment=1)     13.24916511    3.70995158   18.23705835
 C(Fragment=1)     13.67301815    0.97473931   10.56598095
 H(Fragment=1)     12.30054642    4.74368125   11.14733607
 H(Fragment=1)     14.03493421    4.92172299   11.03214951
 H(Fragment=1)     13.20263152    3.78610392    9.99739924
 C(Fragment=1)     13.79601815   -0.20726069   13.07998095
 O(Fragment=1)     12.57101815    8.72373931   13.93098095
 C(Fragment=1)     12.17301815   10.74473931   15.05898095
 C(Fragment=1)     12.20001815    9.78473931   18.58798095
 C(Fragment=1)     12.03001815   11.11473931   16.41298095
 C(Fragment=1)     13.83401815   -0.40126069   10.67898095
 N(Fragment=1)     13.65401815    1.32873931    9.15798095
 N(Fragment=1)     13.88701815   -0.95526069   14.24298095
 C(Fragment=1)     13.89401815   -0.99226069   11.93498095
 C(Fragment=1)     11.97401815   11.70373931   14.08998095
 C(Fragment=1)     12.33301815    8.62973931   19.31698095
 C(Fragment=1)     11.98001815   10.85673931   19.40698095
 C(Fragment=1)     11.75001815   12.43073931   16.80898095
 C(Fragment=1)     13.94601815   -0.92026069    9.32798095
 C(Fragment=1)     13.82001815    0.09773931    8.48598095
 C(Fragment=1)     13.49750650    2.66523048    8.56620781
 S(Fragment=1)     14.05501815   -2.47826069   13.77998095
 N(Fragment=1)     14.08201815   -2.34326069   12.17198095
 C(Fragment=1)     11.72701815   12.97373931   14.52398095
 H(Fragment=1)     12.00601815   11.49673931   13.18398095
 N(Fragment=1)     12.49001815    7.67173931   19.99698095
 N(Fragment=1)     11.79701815   11.83773931   20.10698095
 H(Fragment=1)     11.70501815   12.67773931   17.70298095
 C(Fragment=1)     11.55801815   13.29073931   15.84898095
 S(Fragment=1)     14.16601815   -2.46726069    8.63498095
 C(Fragment=1)     13.96201815   -0.35026069    7.15598095
 H(Fragment=1)     12.56309170    3.08498618    8.87535847
 H(Fragment=1)     14.29750933    3.29603565    8.89328625
 H(Fragment=1)     13.51799507    2.58748929    7.49923240
 F(Fragment=1)     11.56001815   13.94873931   13.58398095
 F(Fragment=1)     11.30301815   14.56573931   16.07998095
 C(Fragment=1)     14.16501815   -1.63226069    7.03398095
 S(Fragment=1)     14.01901815    0.42673931    5.57598095
 C(Fragment=1)     14.30601815   -2.25526069    5.88898095
 C(Fragment=1)     14.26701815   -1.20626069    4.91998095
 C(Fragment=1)     14.47450491   -3.76649775    5.64531160
 C(Fragment=1)     14.45001815   -1.43526069    3.49298095
 H(Fragment=1)     13.70776887   -4.10847357    4.98193510
 H(Fragment=1)     15.43331611   -3.95259800    5.20833589
 H(Fragment=1)     14.39949517   -4.28843662    6.57636120
 C(Fragment=1)     14.51501815   -0.61226069    2.40298095
 H(Fragment=1)     14.54201815   -2.33526069    3.27898095
 C(Fragment=1)     14.78501815   -1.05726069    0.90698095
 C(Fragment=1)     14.50001815    0.79373931    2.33598095
 C(Fragment=1)     14.89201815    0.17673931    0.15498095
 C(Fragment=1)     14.96501815   -2.33226069    0.57198095
 O(Fragment=1)     14.28401815    1.61673931    3.26198095
 C(Fragment=1)     14.69101815    1.31073931    0.93598095
 C(Fragment=1)     15.08501815    0.30273931   -1.21601905
 C(Fragment=1)     14.84401815   -3.50826069    1.32698095
 C(Fragment=1)     15.28001815   -2.62326069   -0.77601905
 C(Fragment=1)     14.68401815    2.56773931    0.34598095
 H(Fragment=1)     15.21901815   -0.45526069   -1.73701905
 C(Fragment=1)     15.07801815    1.55973931   -1.80601905
 N(Fragment=1)     14.71001815   -4.48726069    1.97198095
 N(Fragment=1)     15.50101815   -2.84926069   -1.91001905
 C(Fragment=1)     14.87701815    2.69373931   -1.02501905
 H(Fragment=1)     14.54901815    3.32573931    0.86698095
 F(Fragment=1)     15.20701815    1.83873931   -3.11401905
 F(Fragment=1)     14.91701815    3.93073931   -1.50801905
 N(Fragment=2)      3.75400000    4.59700000   10.27500000
 C(Fragment=2)      3.91100000    3.63900000   10.95500000
 C(Fragment=2)      4.04400000    2.48500000   11.68400000
 C(Fragment=2)      4.01700000    2.39800000   13.06400000
 C(Fragment=2)      4.26400000    1.41200000   10.86600000
 C(Fragment=2)      3.75600000    3.50800000   13.93200000
 C(Fragment=2)      4.21400000    1.15400000   13.86000000
 N(Fragment=2)      4.44600000    0.43200000   10.16500000
 C(Fragment=2)      3.58200000    4.84600000   13.66000000
 C(Fragment=2)      3.82700000    3.02400000   15.20500000
 C(Fragment=2)      4.49400000   -0.16100000   13.46300000
 C(Fragment=2)      4.07100000    1.52500000   15.21300000
 H(Fragment=2)      3.62900000    5.01700000   12.74900000
 C(Fragment=2)      3.35400000    6.01700000   14.39800000
 O(Fragment=2)      3.67300000    3.54600000   16.34200000
 H(Fragment=2)      4.53900000   -0.40800000   12.56900000
 C(Fragment=2)      4.68600000   -1.02100000   14.42400000
 C(Fragment=2)      4.27000000    0.56500000   16.18300000
 S(Fragment=2)      3.26600000    6.14400000   16.13300000
 C(Fragment=2)      3.17200000    7.28100000   13.75300000
 F(Fragment=2)      4.94100000   -2.29600000   14.19200000
 C(Fragment=2)      4.51700000   -0.70500000   15.74900000
 H(Fragment=2)      4.23800000    0.77200000   17.08800000
 C(Fragment=2)      3.00000000    7.82800000   16.02600000
 C(Fragment=2)      2.98200000    8.25600000   14.73300000
 C(Fragment=2)      3.18380164    7.52463960   12.23244074
 F(Fragment=2)      4.68400000   -1.67900000   16.68900000
 C(Fragment=2)      2.82200000    8.89400000   16.93200000
 S(Fragment=2)      2.72800000   10.01700000   14.57800000
 H(Fragment=2)      4.13952145    7.25324230   11.83514596
 H(Fragment=2)      2.42353753    6.93038698   11.77009637
 H(Fragment=2)      2.99654575    8.55957157   12.03558786
 N(Fragment=2)      2.84700000    9.09200000   18.28900000
 C(Fragment=2)      2.68400000   10.13100000   16.26100000
 C(Fragment=2)      2.67000000   10.51000000   18.56300000
 C(Fragment=2)      3.02393457    8.04184219   19.30229302
 C(Fragment=2)      2.60900000   11.10100000   17.30800000
 C(Fragment=2)      2.57200000   11.29500000   19.70600000
 H(Fragment=2)      3.91094730    8.23765827   19.86777022
 H(Fragment=2)      2.17807650    8.03230475   19.95752821
 H(Fragment=2)      3.11156895    7.09116326   18.81914730
 C(Fragment=2)      2.44800000   12.47700000   17.19200000
 C(Fragment=2)      2.41100000   12.67000000   19.59300000
 N(Fragment=2)      2.59000000   10.94000000   21.11500000
 N(Fragment=2)      2.35600000   13.22400000   16.02900000
 C(Fragment=2)      2.34900000   13.26200000   18.33800000
 C(Fragment=2)      2.29900000   13.19000000   20.94400000
 C(Fragment=2)      2.42500000   12.17100000   21.78600000
 C(Fragment=2)      2.74478482    9.60334855   21.70686532
 S(Fragment=2)      2.18900000   14.74800000   16.49200000
 N(Fragment=2)      2.16200000   14.61200000   18.10100000
 S(Fragment=2)      2.07900000   14.73600000   21.63700000
 C(Fragment=2)      2.28300000   12.61900000   23.11700000
 H(Fragment=2)      3.24669297    9.68605030   22.64822000
 H(Fragment=2)      1.78004267    9.16469761   21.85437110
 H(Fragment=2)      3.32028528    8.98636136   21.04881819
 C(Fragment=2)      2.07900000   13.90200000   23.23800000
 S(Fragment=2)      2.22600000   11.84300000   24.69700000
 C(Fragment=2)      1.93900000   14.52500000   24.38400000
 C(Fragment=2)      1.97800000   13.47600000   25.35300000
 C(Fragment=2)      1.77150037   16.03628565   24.62804827
 C(Fragment=2)      1.79500000   13.70400000   26.77900000
 H(Fragment=2)      0.81269761   16.22293220   25.06480945
 H(Fragment=2)      2.53829010   16.37753926   25.29173455
 H(Fragment=2)      1.84713384   16.55843417   23.69716670
 C(Fragment=2)      1.72900000   12.88100000   27.87000000
 H(Fragment=2)      1.70300000   14.60500000   26.99300000
 C(Fragment=2)      1.45900000   13.32700000   29.36500000
 C(Fragment=2)      1.74500000   11.47600000   27.93600000
 C(Fragment=2)      1.35200000   12.09300000   30.11700000
 C(Fragment=2)      1.27900000   14.60100000   29.70100000
 O(Fragment=2)      1.96100000   10.65200000   27.01000000
 C(Fragment=2)      1.55300000   10.95900000   29.33600000
 C(Fragment=2)      1.15900000   11.96700000   31.48900000
 C(Fragment=2)      1.40000000   15.77700000   28.94600000
 C(Fragment=2)      0.96400000   14.89300000   31.04900000
 C(Fragment=2)      1.56000000    9.70100000   29.92600000
 H(Fragment=2)      1.02400000   12.72500000   32.00900000
 C(Fragment=2)      1.16600000   10.70900000   32.07900000
 N(Fragment=2)      1.53500000   16.75700000   28.30100000
 N(Fragment=2)      0.74300000   15.11800000   32.18300000
 C(Fragment=2)      1.36700000    9.57600000   31.29800000
 H(Fragment=2)      1.69400000    8.94300000   29.40600000
 F(Fragment=2)      1.03700000   10.43000000   33.38600000
 F(Fragment=2)      1.32700000    8.33900000   31.78100000

Eps=5.0

