%nprocshared=24
%mem=188GB
%chk=tda1.chk
# td(nstates=20) tda cam-b3lyp/6-31+G(d,p) int=(ultrafine,acc2e=11) nosymm iop(3/107=0010000000,3/108=0010000000) iop(3/33=1,9/40=5) scrf(iefpcm,read) punch=mo maxdisk=1TB

tda1

0 1 0 1 0 1
 S(Fragment=1)      6.82300000    6.77700000   12.79600000
 C(Fragment=1)      7.08900000    5.09300000   12.90200000
 C(Fragment=1)      6.73400000    6.90400000   14.53100000
 C(Fragment=1)      7.26600000    4.02600000   11.99700000
 C(Fragment=1)      7.10700000    4.66500000   14.19500000
 C(Fragment=1)      6.50600000    8.07500000   15.26800000
 C(Fragment=1)      6.91700000    5.64000000   15.17600000
 N(Fragment=1)      7.24200000    3.82900000   10.64000000
 C(Fragment=1)      7.40400000    2.78900000   12.66800000
 S(Fragment=1)      7.36100000    2.90400000   14.35000000
 C(Fragment=1)      6.33300000    9.41200000   14.99700000
 H(Fragment=1)      6.46000000    7.90400000   16.18000000
 C(Fragment=1)      6.72166251    5.36831232   16.67920626
 C(Fragment=1)      7.41800000    2.41100000   10.36500000
 C(Fragment=1)      7.05460110    4.99663928    9.76684470
 C(Fragment=1)      7.48000000    1.82000000   11.62100000
 C(Fragment=1)      6.26200000    9.89600000   13.72400000
 C(Fragment=1)      6.07200000   10.52200000   15.86400000
 H(Fragment=1)      7.46234536    5.90198907   17.23730845
 H(Fragment=1)      5.74705557    5.69452029   16.97691364
 H(Fragment=1)      6.81986516    4.31965764   16.86783178
 C(Fragment=1)      7.51800000    1.62600000    9.22200000
 H(Fragment=1)      6.09360752    5.42945067    9.95141346
 H(Fragment=1)      7.81649913    5.71990662    9.97005824
 H(Fragment=1)      7.11729072    4.69047446    8.74350062
 C(Fragment=1)      7.64100000    0.44400000   11.73600000
 O(Fragment=1)      6.41600000    9.37500000   12.58700000
 C(Fragment=1)      6.01800000   11.39600000   13.71500000
 C(Fragment=1)      6.04500000   10.43600000   17.24400000
 C(Fragment=1)      5.87500000   11.76600000   15.06900000
 C(Fragment=1)      7.67900000    0.25000000    9.33500000
 N(Fragment=1)      7.49900000    1.98000000    7.81400000
 N(Fragment=1)      7.73200000   -0.30400000   12.89900000
 C(Fragment=1)      7.73900000   -0.34100000   10.59100000
 C(Fragment=1)      5.81900000   12.35500000   12.74600000
 C(Fragment=1)      6.17800000    9.28100000   17.97300000
 C(Fragment=1)      5.82500000   11.50800000   18.06300000
 C(Fragment=1)      5.59500000   13.08200000   15.46500000
 C(Fragment=1)      7.79100000   -0.26900000    7.98400000
 C(Fragment=1)      7.66500000    0.74900000    7.14200000
 C(Fragment=1)      7.23530135    3.18477935    7.01408141
 S(Fragment=1)      7.90000000   -1.82700000   12.43600000
 N(Fragment=1)      7.92700000   -1.69200000   10.82800000
 C(Fragment=1)      5.57200000   13.62500000   13.18000000
 H(Fragment=1)      5.85100000   12.14800000   11.84000000
 N(Fragment=1)      6.33500000    8.32300000   18.65300000
 N(Fragment=1)      5.64200000   12.48900000   18.76300000
 H(Fragment=1)      5.55000000   13.32900000   16.35900000
 C(Fragment=1)      5.40300000   13.94200000   14.50500000
 S(Fragment=1)      8.01100000   -1.81600000    7.29100000
 C(Fragment=1)      7.80700000    0.30100000    5.81200000
 H(Fragment=1)      8.15953728    3.67864550    6.79778494
 H(Fragment=1)      6.75642797    2.90716366    6.09837959
 H(Fragment=1)      6.59799493    3.84547676    7.56382631
 F(Fragment=1)      5.40500000   14.60000000   12.24000000
 F(Fragment=1)      5.14800000   15.21700000   14.73600000
 C(Fragment=1)      8.01000000   -0.98100000    5.69000000
 S(Fragment=1)      7.86400000    1.07800000    4.23200000
 C(Fragment=1)      8.15100000   -1.60400000    4.54500000
 C(Fragment=1)      8.11200000   -0.55500000    3.57600000
 C(Fragment=1)      8.17513749   -3.08242098    4.11454818
 C(Fragment=1)      8.29500000   -0.78400000    2.14900000
 H(Fragment=1)      7.36711566   -3.27037895    3.43877267
 H(Fragment=1)      9.10387280   -3.29728114    3.62855863
 H(Fragment=1)      8.07119484   -3.70681704    4.97723323
 C(Fragment=1)      8.36000000    0.03900000    1.05900000
 H(Fragment=1)      8.38700000   -1.68400000    1.93500000
 C(Fragment=1)      8.63000000   -0.40600000   -0.43700000
 C(Fragment=1)      8.34500000    1.44500000    0.99200000
 C(Fragment=1)      8.73700000    0.82800000   -1.18900000
 C(Fragment=1)      8.81000000   -1.68100000   -0.77200000
 O(Fragment=1)      8.12900000    2.26800000    1.91800000
 C(Fragment=1)      8.53600000    1.96200000   -0.40800000
 C(Fragment=1)      8.93000000    0.95400000   -2.56000000
 C(Fragment=1)      8.68900000   -2.85700000   -0.01700000
 C(Fragment=1)      9.12500000   -1.97200000   -2.12000000
 C(Fragment=1)      8.52900000    3.21900000   -0.99800000
 H(Fragment=1)      9.06400000    0.19600000   -3.08100000
 C(Fragment=1)      8.92300000    2.21100000   -3.15000000
 N(Fragment=1)      8.55500000   -3.83600000    0.62800000
 N(Fragment=1)      9.34600000   -2.19800000   -3.25400000
 C(Fragment=1)      8.72200000    3.34500000   -2.36900000
 H(Fragment=1)      8.39400000    3.97700000   -0.47700000
 F(Fragment=1)      9.05200000    2.49000000   -4.45800000
 F(Fragment=1)      8.76200000    4.58200000   -2.85200000
 H(Fragment=2)     10.18500000    7.45800000   17.14900000
 C(Fragment=2)     10.13500000    7.62800000   16.23500000
 C(Fragment=2)      9.89400000    8.91800000   15.77800000
 C(Fragment=2)     10.29700000    6.58800000   15.32600000
 C(Fragment=2)      9.66500000   10.19600000   16.52400000
 C(Fragment=2)      9.81700000    9.17100000   14.41200000
 F(Fragment=2)     10.54100000    5.38000000   15.73100000
 C(Fragment=2)     10.22000000    6.83900000   13.96100000
 C(Fragment=2)      9.49500000   11.20200000   15.44500000
 C(Fragment=2)      9.62800000   10.42600000   17.74200000
 C(Fragment=2)      9.51900000   10.67300000   14.12600000
 C(Fragment=2)      9.98000000    8.13100000   13.50400000
 F(Fragment=2)     10.38200000    5.87100000   13.02600000
 C(Fragment=2)      9.36300000   12.59300000   15.63900000
 C(Fragment=2)      9.43200000   11.60600000   18.50600000
 C(Fragment=2)      9.83900000    9.13800000   18.56600000
 O(Fragment=2)      9.39200000   11.06600000   13.00600000
 H(Fragment=2)      9.92900000    8.29800000   12.59300000
 H(Fragment=2)      9.38700000   12.81900000   16.54100000
 C(Fragment=2)      9.19900000   13.75800000   14.79700000
 N(Fragment=2)      9.29400000   12.59800000   19.09600000
 N(Fragment=2)      9.99485821    8.18660011   19.17465956
 S(Fragment=2)      9.28900000   13.75300000   13.06100000
 C(Fragment=2)      9.10800000   15.03400000   15.33800000
 C(Fragment=2)      9.13200000   15.42100000   13.07000000
 C(Fragment=2)      9.03200000   16.00200000   14.34000000
 C(Fragment=2)      9.07381715   15.41403283   16.82998076
 C(Fragment=2)      9.09300000   16.54400000   12.12400000
 S(Fragment=2)      8.90900000   17.72500000   14.38700000
 H(Fragment=2)      8.26347190   14.90543110   17.30911001
 H(Fragment=2)      9.99623869   15.12967129   17.29169173
 H(Fragment=2)      8.93799046   16.47104483   16.92577606
 N(Fragment=2)      9.21000000   16.63300000   10.73200000
 C(Fragment=2)      9.01300000   17.81000000   12.64200000
 C(Fragment=2)      9.13700000   17.97300000   10.41400000
 C(Fragment=2)      9.55024172   15.47223332    9.89668192
 C(Fragment=2)      9.04900000   18.73800000   11.59500000
 C(Fragment=2)      9.14600000   18.81700000    9.17000000
 H(Fragment=2)      9.10746568   15.58687235    8.92936229
 H(Fragment=2)     10.61337205   15.40425105    9.79652045
 H(Fragment=2)      9.17754625   14.58066509   10.35614267
 C(Fragment=2)      8.88100000   20.15000000   11.68100000
 N(Fragment=2)      9.34500000   18.50400000    7.81400000
 C(Fragment=2)      8.92500000   20.17100000    9.26900000
 N(Fragment=2)      8.70500000   20.83500000   12.80400000
 C(Fragment=2)      8.70800000   20.77200000   10.47800000
 C(Fragment=2)      9.16000000   19.70400000    7.07300000
 C(Fragment=2)      9.81258265   17.24743420    7.21124892
 C(Fragment=2)      8.96200000   20.65300000    7.99900000
 S(Fragment=2)      8.47200000   22.36600000   12.33500000
 N(Fragment=2)      8.55100000   22.17700000   10.65400000
 C(Fragment=2)      9.21200000   20.04800000    5.71300000
 H(Fragment=2)     10.38674013   16.69957101    7.92894601
 H(Fragment=2)      8.96983203   16.66245833    6.90715254
 H(Fragment=2)     10.42152496   17.46563056    6.35891118
 S(Fragment=2)      8.71800000   22.21000000    7.16400000
 S(Fragment=2)      9.41900000   19.28000000    4.22800000
 C(Fragment=2)      8.97400000   21.42900000    5.70200000
 C(Fragment=2)      9.21300000   20.81000000    3.45400000
 C(Fragment=2)      9.01800000   21.88800000    4.34500000
 C(Fragment=2)      9.33300000   21.03500000    2.06000000
 C(Fragment=2)      8.80480321   23.37258950    3.99551303
 C(Fragment=2)      9.59200000   20.36600000    0.92000000
 H(Fragment=2)      9.18600000   21.93300000    1.87200000
 H(Fragment=2)      9.72258377   23.79004179    3.63730578
 H(Fragment=2)      8.05483715   23.45629053    3.23693209
 H(Fragment=2)      8.48885853   23.90293626    4.86947600
 C(Fragment=2)      9.64400000   18.93800000    0.95500000
 C(Fragment=2)      9.78800000   20.76700000   -0.49800000
 O(Fragment=2)      9.54700000   18.06600000    1.81400000
 C(Fragment=2)      9.87500000   18.39300000   -0.44800000
 C(Fragment=2)      9.79300000   22.00600000   -0.80700000
 C(Fragment=2)      9.95600000   19.50000000   -1.28400000
 C(Fragment=2)     10.05100000   17.11500000   -0.96600000
 C(Fragment=2)      9.66200000   23.19000000   -0.04000000
 C(Fragment=2)      9.94700000   22.28800000   -2.40400000
 C(Fragment=2)     10.21400000   19.33100000   -2.63800000
 H(Fragment=2)      9.99600000   16.37500000   -0.40800000
 C(Fragment=2)     10.30900000   16.94700000   -2.32300000
 N(Fragment=2)      9.52100000   24.15200000    0.55300000
 N(Fragment=2)     10.04917105   22.47509243   -3.46352702
 C(Fragment=2)     10.39000000   18.05400000   -3.15900000
 H(Fragment=2)     10.26800000   20.07200000   -3.19900000
 F(Fragment=2)     10.43900000   15.79400000   -2.90200000
 F(Fragment=2)     10.61400000   17.94400000   -4.51600000

Eps=5.0

