%nprocshared=24
%mem=188GB
%chk=tda2.chk
# td(nstates=20) tda cam-b3lyp/6-31+G(d,p) int=(ultrafine,acc2e=11) nosymm iop(3/107=0010000000,3/108=0010000000) iop(3/33=1,9/40=5) scrf(iefpcm,read) punch=mo maxdisk=1TB

tda2

0 1 0 1 0 1
 S(Fragment=1)        8.47200000   22.36600000   12.33500000
 N(Fragment=1)        8.55100000   22.17700000   10.65400000
 N(Fragment=1)        8.70500000   20.83500000   12.80400000
 C(Fragment=1)        8.70800000   20.77200000   10.47800000
 C(Fragment=1)        8.88100000   20.15000000   11.68100000
 C(Fragment=1)        8.92500000   20.17100000    9.26900000
 C(Fragment=1)        9.04900000   18.73800000   11.59500000
 C(Fragment=1)        9.14600000   18.81700000    9.17000000
 C(Fragment=1)        8.96200000   20.65300000    7.99900000
 C(Fragment=1)        9.01300000   17.81000000   12.64200000
 C(Fragment=1)        9.13700000   17.97300000   10.41400000
 N(Fragment=1)        9.34500000   18.50400000    7.81400000
 S(Fragment=1)        8.71800000   22.21000000    7.16400000
 C(Fragment=1)        9.16000000   19.70400000    7.07300000
 S(Fragment=1)        8.90900000   17.72500000   14.38700000
 C(Fragment=1)        9.09300000   16.54400000   12.12400000
 N(Fragment=1)        9.21000000   16.63300000   10.73200000
 C(Fragment=1)        9.68154470   17.18282957    7.26432159
 C(Fragment=1)        8.97400000   21.42900000    5.70200000
 C(Fragment=1)        9.21200000   20.04800000    5.71300000
 C(Fragment=1)        9.03200000   16.00200000   14.34000000
 C(Fragment=1)        9.13200000   15.42100000   13.07000000
 C(Fragment=1)        9.37801302   15.51548584    9.79187569
 H(Fragment=1)        8.80378996   16.73660406    6.84559804
 H(Fragment=1)       10.42431466   17.29237524    6.50196175
 H(Fragment=1)       10.06149731   16.55784151    8.04529915
 C(Fragment=1)        9.01800000   21.88800000    4.34500000
 S(Fragment=1)        9.41900000   19.28000000    4.22800000
 C(Fragment=1)        9.10800000   15.03400000   15.33800000
 S(Fragment=1)        9.28900000   13.75300000   13.06100000
 H(Fragment=1)        8.68654366   15.62329014    8.98246334
 H(Fragment=1)       10.37749189   15.51796278    9.40986016
 H(Fragment=1)        9.19229865   14.59177622   10.29899572
 C(Fragment=1)        9.21300000   20.81000000    3.45400000
 C(Fragment=1)        8.87213966   23.35983419    3.91601414
 C(Fragment=1)        9.19900000   13.75800000   14.79700000
 C(Fragment=1)        9.09307799   15.33894575   16.84743215
 C(Fragment=1)        9.33300000   21.03500000    2.06000000
 H(Fragment=1)        9.79892315   23.70608291    3.50847986
 H(Fragment=1)        8.10429234   23.44102129    3.17525834
 H(Fragment=1)        8.61185898   23.95503602    4.76624279
 C(Fragment=1)        9.36300000   12.59300000   15.63900000
 H(Fragment=1)        8.27853260   14.82009223   17.30809128
 H(Fragment=1)       10.01458540   15.01676219   17.28552102
 H(Fragment=1)        8.97574809   16.39186067   16.99744501
 C(Fragment=1)        9.59200000   20.36600000    0.92000000
 H(Fragment=1)        9.18600000   21.93300000    1.87200000
 C(Fragment=1)        9.49500000   11.20200000   15.44500000
 H(Fragment=1)        9.38700000   12.81900000   16.54100000
 C(Fragment=1)        9.64400000   18.93800000    0.95500000
 C(Fragment=1)        9.78800000   20.76700000   -0.49800000
 C(Fragment=1)        9.51900000   10.67300000   14.12600000
 C(Fragment=1)        9.66500000   10.19600000   16.52400000
 O(Fragment=1)        9.54700000   18.06600000    1.81400000
 C(Fragment=1)        9.87500000   18.39300000   -0.44800000
 C(Fragment=1)        9.79300000   22.00600000   -0.80700000
 C(Fragment=1)        9.95600000   19.50000000   -1.28400000
 O(Fragment=1)        9.39200000   11.06600000   13.00600000
 C(Fragment=1)        9.81700000    9.17100000   14.41200000
 C(Fragment=1)        9.89400000    8.91800000   15.77800000
 C(Fragment=1)        9.62800000   10.42600000   17.74200000
 C(Fragment=1)       10.05100000   17.11500000   -0.96600000
 C(Fragment=1)        9.66200000   23.19000000   -0.04000000
 C(Fragment=1)        9.94700000   22.28800000   -2.40400000
 C(Fragment=1)       10.21400000   19.33100000   -2.63800000
 C(Fragment=1)        9.98000000    8.13100000   13.50400000
 C(Fragment=1)       10.13500000    7.62800000   16.23500000
 C(Fragment=1)        9.43200000   11.60600000   18.50600000
 C(Fragment=1)        9.83900000    9.13800000   18.56600000
 H(Fragment=1)        9.99600000   16.37500000   -0.40800000
 C(Fragment=1)       10.30900000   16.94700000   -2.32300000
 N(Fragment=1)        9.52100000   24.15200000    0.55300000
 N(Fragment=1)       10.04917105   22.47509243   -3.46352702
 C(Fragment=1)       10.39000000   18.05400000   -3.15900000
 H(Fragment=1)       10.26800000   20.07200000   -3.19900000
 C(Fragment=1)       10.22000000    6.83900000   13.96100000
 H(Fragment=1)        9.92900000    8.29800000   12.59300000
 H(Fragment=1)       10.18500000    7.45800000   17.14900000
 C(Fragment=1)       10.29700000    6.58800000   15.32600000
 N(Fragment=1)        9.29400000   12.59800000   19.09600000
 N(Fragment=1)        9.99485821    8.18660011   19.17465956
 F(Fragment=1)       10.43900000   15.79400000   -2.90200000
 F(Fragment=1)       10.61400000   17.94400000   -4.51600000
 F(Fragment=1)       10.38200000    5.87100000   13.02600000
 F(Fragment=1)       10.54100000    5.38000000   15.73100000
 O(Fragment=2)        5.88000000   21.79500000    1.91800000
 C(Fragment=2)        6.09600000   20.97200000    0.99200000
 C(Fragment=2)        6.28700000   21.48900000   -0.40800000
 C(Fragment=2)        6.11100000   19.56600000    1.05900000
 C(Fragment=2)        6.48800000   20.35500000   -1.18900000
 C(Fragment=2)        6.28000000   22.74600000   -0.99800000
 C(Fragment=2)        6.38100000   19.12100000   -0.43700000
 C(Fragment=2)        6.04600000   18.74300000    2.14900000
 C(Fragment=2)        6.68100000   20.48100000   -2.56000000
 C(Fragment=2)        6.47300000   22.87200000   -2.36900000
 H(Fragment=2)        6.14500000   23.50400000   -0.47700000
 C(Fragment=2)        6.56100000   17.84600000   -0.77200000
 C(Fragment=2)        5.86300000   18.97200000    3.57600000
 H(Fragment=2)        6.13800000   17.84300000    1.93500000
 H(Fragment=2)        6.81500000   19.72300000   -3.08100000
 C(Fragment=2)        6.67400000   21.73800000   -3.15000000
 F(Fragment=2)        6.51300000   24.10900000   -2.85200000
 C(Fragment=2)        6.44000000   16.67000000   -0.01700000
 C(Fragment=2)        6.87600000   17.55500000   -2.12000000
 S(Fragment=2)        5.61500000   20.60500000    4.23200000
 C(Fragment=2)        5.90200000   17.92300000    4.54500000
 F(Fragment=2)        6.80300000   22.01700000   -4.45800000
 N(Fragment=2)        6.30600000   15.69100000    0.62800000
 N(Fragment=2)        7.09700000   17.32900000   -3.25400000
 C(Fragment=2)        5.55800000   19.82800000    5.81200000
 C(Fragment=2)        5.76200000   18.54600000    5.69000000
 C(Fragment=2)        6.06954911   16.41167413    4.30123496
 C(Fragment=2)        5.41600000   20.27600000    7.14200000
 S(Fragment=2)        5.76200000   17.71100000    7.29100000
 H(Fragment=2)        5.30275621   16.07026639    3.63763161
 H(Fragment=2)        7.02834840   16.22497962    3.86448664
 H(Fragment=2)        5.99395667   15.88969973    5.23221751
 C(Fragment=2)        5.54200000   19.25800000    7.98400000
 N(Fragment=2)        5.25000000   21.50700000    7.81400000
 C(Fragment=2)        5.42900000   19.77700000    9.33500000
 C(Fragment=2)        5.26800000   21.15300000    9.22200000
 C(Fragment=2)        5.09430483   22.84356755    7.22218398
 C(Fragment=2)        5.49000000   19.18600000   10.59100000
 C(Fragment=2)        5.17000000   21.93800000   10.36500000
 H(Fragment=2)        4.15942887   23.26325110    7.53003566
 H(Fragment=2)        5.89381191   23.47435312    7.55051000
 H(Fragment=2)        5.11634460   22.76597369    6.15522876
 N(Fragment=2)        5.67800000   17.83500000   10.82800000
 C(Fragment=2)        5.39200000   19.97100000   11.73600000
 N(Fragment=2)        4.99300000   23.35600000   10.64000000
 C(Fragment=2)        5.23100000   21.34700000   11.62100000
 S(Fragment=2)        5.65100000   17.70000000   12.43600000
 N(Fragment=2)        5.48300000   19.22300000   12.89900000
 C(Fragment=2)        5.01700000   23.55300000   11.99700000
 C(Fragment=2)        4.81699794   24.40694111    9.62735690
 C(Fragment=2)        5.15500000   22.31600000   12.66800000
 C(Fragment=2)        4.84000000   24.62000000   12.90200000
 H(Fragment=2)        3.89626632   24.92243280    9.80461830
 H(Fragment=2)        5.63059186   25.09935149    9.68679422
 H(Fragment=2)        4.79602535   23.96400942    8.65356448
 S(Fragment=2)        5.11200000   22.43100000   14.35000000
 S(Fragment=2)        4.57400000   26.30400000   12.79600000
 C(Fragment=2)        4.85800000   24.19200000   14.19500000
 C(Fragment=2)        4.48500000   26.43100000   14.53100000
 C(Fragment=2)        4.66800000   25.16700000   15.17600000
 C(Fragment=2)        4.25700000   27.60200000   15.26800000
 C(Fragment=2)        4.65719864   24.92307505   16.69652095
 C(Fragment=2)        4.08400000   28.93900000   14.99700000
 H(Fragment=2)        4.21100000   27.43100000   16.18000000
 H(Fragment=2)        5.41741699   25.51764053   17.15853821
 H(Fragment=2)        3.70156517   25.19389925   17.09441406
 H(Fragment=2)        4.84510893   23.88820509   16.89307598
 C(Fragment=2)        4.01300000   29.42300000   13.72400000
 C(Fragment=2)        3.82300000   30.04900000   15.86400000
 O(Fragment=2)        4.16700000   28.90200000   12.58700000
 C(Fragment=2)        3.76900000   30.92300000   13.71500000
 C(Fragment=2)        3.79600000   29.96300000   17.24400000
 C(Fragment=2)        3.62600000   31.29300000   15.06900000
 C(Fragment=2)        3.57000000   31.88300000   12.74600000
 C(Fragment=2)        3.92900000   28.80800000   17.97300000
 C(Fragment=2)        3.57600000   31.03500000   18.06300000
 C(Fragment=2)        3.34600000   32.60900000   15.46500000
 C(Fragment=2)        3.32300000   33.15200000   13.18000000
 H(Fragment=2)        3.60200000   31.67500000   11.84000000
 N(Fragment=2)        4.08600000   27.85000000   18.65300000
 N(Fragment=2)        3.39300000   32.01600000   18.76300000
 H(Fragment=2)        3.30100000   32.85600000   16.35900000
 C(Fragment=2)        3.15400000   33.46900000   14.50500000
 F(Fragment=2)        3.15600000   34.12700000   12.24000000
 F(Fragment=2)        2.89900000   34.74400000   14.73600000

Eps=5.0

