%nprocshared=24
%mem=188GB
%chk=tda3.chk
# td(nstates=20) tda cam-b3lyp/6-31+G(d,p) int=(ultrafine,acc2e=11) nosymm iop(3/107=0010000000,3/108=0010000000) iop(3/33=1,9/40=5) scrf(iefpcm,read) punch=mo maxdisk=1TB

tda3

0 1 0 1 0 1
 S(Fragment=1)               8.47200000   22.36600000   12.33500000
 N(Fragment=1)               8.55100000   22.17700000   10.65400000
 N(Fragment=1)               8.70500000   20.83500000   12.80400000
 C(Fragment=1)               8.70800000   20.77200000   10.47800000
 C(Fragment=1)               8.88100000   20.15000000   11.68100000
 C(Fragment=1)               8.92500000   20.17100000    9.26900000
 C(Fragment=1)               9.04900000   18.73800000   11.59500000
 C(Fragment=1)               9.14600000   18.81700000    9.17000000
 C(Fragment=1)               8.96200000   20.65300000    7.99900000
 C(Fragment=1)               9.01300000   17.81000000   12.64200000
 C(Fragment=1)               9.13700000   17.97300000   10.41400000
 N(Fragment=1)               9.34500000   18.50400000    7.81400000
 S(Fragment=1)               8.71800000   22.21000000    7.16400000
 C(Fragment=1)               9.16000000   19.70400000    7.07300000
 S(Fragment=1)               8.90900000   17.72500000   14.38700000
 C(Fragment=1)               9.09300000   16.54400000   12.12400000
 N(Fragment=1)               9.21000000   16.63300000   10.73200000
 C(Fragment=1)               9.68154470   17.18282957    7.26432159
 C(Fragment=1)               8.97400000   21.42900000    5.70200000
 C(Fragment=1)               9.21200000   20.04800000    5.71300000
 C(Fragment=1)               9.03200000   16.00200000   14.34000000
 C(Fragment=1)               9.13200000   15.42100000   13.07000000
 C(Fragment=1)               9.37801302   15.51548584    9.79187569
 H(Fragment=1)              10.44607605   16.73207241    7.86199191
 H(Fragment=1)               8.81059877   16.56129371    7.27113107
 H(Fragment=1)              10.03292711   17.29345473    6.25973587
 C(Fragment=1)               9.01800000   21.88800000    4.34500000
 S(Fragment=1)               9.41900000   19.28000000    4.22800000
 C(Fragment=1)               9.10800000   15.03400000   15.33800000
 S(Fragment=1)               9.28900000   13.75300000   13.06100000
 H(Fragment=1)              10.31484474   15.03237930    9.97587135
 H(Fragment=1)               8.58203586   14.81324108    9.92668170
 H(Fragment=1)               9.35945360   15.88740882    8.78876611
 C(Fragment=1)               9.21300000   20.81000000    3.45400000
 C(Fragment=1)               8.87213966   23.35983419    3.91601414
 C(Fragment=1)               9.19900000   13.75800000   14.79700000
 C(Fragment=1)               9.09307799   15.33894575   16.84743215
 C(Fragment=1)               9.33300000   21.03500000    2.06000000
 H(Fragment=1)               9.79900903   23.70616992    3.50874921
 H(Fragment=1)               8.10449333   23.44097915    3.17504544
 H(Fragment=1)               8.61157211   23.95499113    4.76618634
 C(Fragment=1)               9.36300000   12.59300000   15.63900000
 H(Fragment=1)               8.27839340   14.82027654   17.30805267
 H(Fragment=1)              10.01449193   15.01655156   17.28556265
 H(Fragment=1)               8.97598075   16.39188701   16.99744199
 C(Fragment=1)               9.59200000   20.36600000    0.92000000
 H(Fragment=1)               9.18600000   21.93300000    1.87200000
 C(Fragment=1)               9.49500000   11.20200000   15.44500000
 H(Fragment=1)               9.38700000   12.81900000   16.54100000
 C(Fragment=1)               9.64400000   18.93800000    0.95500000
 C(Fragment=1)               9.78800000   20.76700000   -0.49800000
 C(Fragment=1)               9.51900000   10.67300000   14.12600000
 C(Fragment=1)               9.66500000   10.19600000   16.52400000
 O(Fragment=1)               9.54700000   18.06600000    1.81400000
 C(Fragment=1)               9.87500000   18.39300000   -0.44800000
 C(Fragment=1)               9.79300000   22.00600000   -0.80700000
 C(Fragment=1)               9.95600000   19.50000000   -1.28400000
 O(Fragment=1)               9.39200000   11.06600000   13.00600000
 C(Fragment=1)               9.81700000    9.17100000   14.41200000
 C(Fragment=1)               9.89400000    8.91800000   15.77800000
 C(Fragment=1)               9.62800000   10.42600000   17.74200000
 C(Fragment=1)              10.05100000   17.11500000   -0.96600000
 C(Fragment=1)               9.66200000   23.19000000   -0.04000000
 C(Fragment=1)               9.94700000   22.28800000   -2.40400000
 C(Fragment=1)              10.21400000   19.33100000   -2.63800000
 C(Fragment=1)               9.98000000    8.13100000   13.50400000
 C(Fragment=1)              10.13500000    7.62800000   16.23500000
 C(Fragment=1)               9.43200000   11.60600000   18.50600000
 C(Fragment=1)               9.83900000    9.13800000   18.56600000
 H(Fragment=1)               9.99600000   16.37500000   -0.40800000
 C(Fragment=1)              10.30900000   16.94700000   -2.32300000
 N(Fragment=1)               9.52100000   24.15200000    0.55300000
 N(Fragment=1)              10.04917105   22.47509243   -3.46352702
 C(Fragment=1)              10.39000000   18.05400000   -3.15900000
 H(Fragment=1)              10.26800000   20.07200000   -3.19900000
 C(Fragment=1)              10.22000000    6.83900000   13.96100000
 H(Fragment=1)               9.92900000    8.29800000   12.59300000
 H(Fragment=1)              10.18500000    7.45800000   17.14900000
 C(Fragment=1)              10.29700000    6.58800000   15.32600000
 N(Fragment=1)               9.29400000   12.59800000   19.09600000
 N(Fragment=1)               9.99485821    8.18660011   19.17465956
 F(Fragment=1)              10.43900000   15.79400000   -2.90200000
 F(Fragment=1)              10.61400000   17.94400000   -4.51600000
 F(Fragment=1)              10.38200000    5.87100000   13.02600000
 F(Fragment=1)              10.54100000    5.38000000   15.73100000
 H(Fragment=2)              13.15599502   15.34845496   -3.50832169
 C(Fragment=2)              14.08291819   15.69404965   -3.91609338
 H(Fragment=2)              14.85090434   15.61229102   -3.17554439
 H(Fragment=2)              14.34254509   15.09868465   -4.76640766
 C(Fragment=2)              13.93800000   17.16600000   -4.34500000
 C(Fragment=2)              13.98200000   17.62500000   -5.70200000
 C(Fragment=2)              13.74400000   18.24400000   -3.45400000
 S(Fragment=2)              14.23800000   16.84400000   -7.16400000
 C(Fragment=2)              13.74400000   19.00600000   -5.71300000
 S(Fragment=2)              13.53700000   19.77400000   -4.22800000
 C(Fragment=2)              13.62400000   18.01900000   -2.06000000
 C(Fragment=2)              13.99500000   18.40100000   -7.99900000
 C(Fragment=2)              13.79600000   19.35000000   -7.07300000
 C(Fragment=2)              13.36400000   18.68800000   -0.92000000
 H(Fragment=2)              13.77100000   17.12100000   -1.87200000
 C(Fragment=2)              14.03100000   18.88300000   -9.26900000
 N(Fragment=2)              13.61100000   20.55000000   -7.81400000
 C(Fragment=2)              13.31200000   20.11600000   -0.95500000
 C(Fragment=2)              13.16800000   18.28700000    0.49800000
 C(Fragment=2)              14.24700000   18.28200000  -10.47800000
 C(Fragment=2)              13.81000000   20.23700000   -9.17000000
 C(Fragment=2)              13.27445530   21.87117043   -7.26432159
 O(Fragment=2)              13.40900000   20.98800000   -1.81400000
 C(Fragment=2)              13.08100000   20.66100000    0.44800000
 C(Fragment=2)              13.16300000   17.04800000    0.80700000
 C(Fragment=2)              13.00100000   19.55400000    1.28400000
 N(Fragment=2)              14.40500000   16.87700000  -10.65400000
 C(Fragment=2)              14.07500000   18.90400000  -11.68100000
 C(Fragment=2)              13.81900000   21.08100000  -10.41400000
 H(Fragment=2)              12.53178529   21.76161056   -6.50186642
 H(Fragment=2)              14.15223886   22.31745430   -6.84572068
 H(Fragment=2)              12.89437392   22.49611432   -8.04527183
 C(Fragment=2)              12.90500000   21.93900000    0.96600000
 C(Fragment=2)              13.29400000   15.86400000    0.04000000
 C(Fragment=2)              13.01000000   16.76600000    2.40400000
 C(Fragment=2)              12.74200000   19.72300000    2.63800000
 S(Fragment=2)              14.48500000   16.68800000  -12.33500000
 N(Fragment=2)              14.25100000   18.21900000  -12.80400000
 C(Fragment=2)              13.90800000   20.31600000  -11.59500000
 N(Fragment=2)              13.74600000   22.42100000  -10.73200000
 H(Fragment=2)              12.96000000   22.67900000    0.40800000
 C(Fragment=2)              12.64800000   22.10700000    2.32300000
 N(Fragment=2)              13.43600000   14.90200000   -0.55300000
 N(Fragment=2)              12.90847588   16.57887712    3.46369943
 C(Fragment=2)              12.56600000   21.00000000    3.15900000
 H(Fragment=2)              12.68800000   18.98200000    3.19900000
 C(Fragment=2)              13.94300000   21.24400000  -12.64200000
 C(Fragment=2)              13.86300000   22.51100000  -12.12400000
 C(Fragment=2)              13.57791142   23.53817194   -9.79148254
 F(Fragment=2)              12.51700000   23.26000000    2.90200000
 F(Fragment=2)              12.34300000   21.11000000    4.51600000
 S(Fragment=2)              14.04800000   21.32900000  -14.38700000
 C(Fragment=2)              13.82500000   23.63300000  -13.07000000
 H(Fragment=2)              12.57860896   23.53513387   -9.40900985
 H(Fragment=2)              14.26980044   23.43045217   -8.98241763
 H(Fragment=2)              13.76297474   24.46210904  -10.29842613
 C(Fragment=2)              13.92400000   23.05200000  -14.34000000
 S(Fragment=2)              13.66700000   25.30100000  -13.06100000
 C(Fragment=2)              13.84800000   24.02000000  -15.33800000
 C(Fragment=2)              13.75700000   25.29600000  -14.79700000
 C(Fragment=2)              13.86292201   23.71505425  -16.84743215
 C(Fragment=2)              13.59400000   26.46100000  -15.63900000
 H(Fragment=2)              12.94165930   24.03778899  -17.28562996
 H(Fragment=2)              14.67783160   24.23342538  -17.30799022
 H(Fragment=2)              13.97964302   22.66207053  -16.99743713
 C(Fragment=2)              13.46200000   27.85200000  -15.44500000
 H(Fragment=2)              13.57000000   26.23500000  -16.54100000
 C(Fragment=2)              13.43700000   28.38100000  -14.12600000
 C(Fragment=2)              13.29100000   28.85800000  -16.52400000
 O(Fragment=2)              13.56400000   27.98800000  -13.00600000
 C(Fragment=2)              13.14000000   29.88300000  -14.41200000
 C(Fragment=2)              13.06300000   30.13600000  -15.77800000
 C(Fragment=2)              13.32900000   28.62800000  -17.74200000
 C(Fragment=2)              12.97600000   30.92300000  -13.50400000
 C(Fragment=2)              12.82200000   31.42600000  -16.23500000
 C(Fragment=2)              13.52400000   27.44800000  -18.50600000
 C(Fragment=2)              13.11800000   29.91600000  -18.56600000
 C(Fragment=2)              12.73600000   32.21500000  -13.96100000
 H(Fragment=2)              13.02800000   30.75600000  -12.59300000
 H(Fragment=2)              12.77100000   31.59600000  -17.14900000
 C(Fragment=2)              12.65900000   32.46600000  -15.32600000
 N(Fragment=2)              13.66300000   26.45600000  -19.09600000
 N(Fragment=2)              12.96213022   30.86747052  -19.17470474
 F(Fragment=2)              12.57500000   33.18300000  -13.02600000
 F(Fragment=2)              12.41600000   33.67400000  -15.73100000

Eps=5.0

