%nprocshared=24
%mem=188GB
%chk=tda4.chk
# td(nstates=20) tda cam-b3lyp/6-31+G(d,p) int=(ultrafine,acc2e=11) nosymm iop(3/107=0010000000,3/108=0010000000) iop(3/33=1,9/40=5) scrf(iefpcm,read) punch=mo maxdisk=1TB

tda4

0 1 0 1 0 1
 S(Fragment=1)            8.47200000   22.36600000   12.33500000
 N(Fragment=1)            8.55100000   22.17700000   10.65400000
 N(Fragment=1)            8.70500000   20.83500000   12.80400000
 C(Fragment=1)            8.70800000   20.77200000   10.47800000
 C(Fragment=1)            8.88100000   20.15000000   11.68100000
 C(Fragment=1)            8.92500000   20.17100000    9.26900000
 C(Fragment=1)            9.04900000   18.73800000   11.59500000
 C(Fragment=1)            9.14600000   18.81700000    9.17000000
 C(Fragment=1)            8.96200000   20.65300000    7.99900000
 C(Fragment=1)            9.01300000   17.81000000   12.64200000
 C(Fragment=1)            9.13700000   17.97300000   10.41400000
 N(Fragment=1)            9.34500000   18.50400000    7.81400000
 S(Fragment=1)            8.71800000   22.21000000    7.16400000
 C(Fragment=1)            9.16000000   19.70400000    7.07300000
 S(Fragment=1)            8.90900000   17.72500000   14.38700000
 C(Fragment=1)            9.09300000   16.54400000   12.12400000
 N(Fragment=1)            9.21000000   16.63300000   10.73200000
 C(Fragment=1)            9.68154470   17.18282957    7.26432159
 C(Fragment=1)            8.97400000   21.42900000    5.70200000
 C(Fragment=1)            9.21200000   20.04800000    5.71300000
 C(Fragment=1)            9.03200000   16.00200000   14.34000000
 C(Fragment=1)            9.13200000   15.42100000   13.07000000
 C(Fragment=1)            9.37801302   15.51548584    9.79187569
 H(Fragment=1)           10.44595779   16.73200159    7.86208974
 H(Fragment=1)            8.81055882   16.56134802    7.27097608
 H(Fragment=1)           10.03308531   17.29347124    6.25979304
 C(Fragment=1)            9.01800000   21.88800000    4.34500000
 S(Fragment=1)            9.41900000   19.28000000    4.22800000
 C(Fragment=1)            9.10800000   15.03400000   15.33800000
 S(Fragment=1)            9.28900000   13.75300000   13.06100000
 H(Fragment=1)           10.31517900   15.03284155    9.97538162
 H(Fragment=1)            8.58244717   14.81287330    9.92719237
 H(Fragment=1)            9.35870804   15.88731435    8.78874516
 C(Fragment=1)            9.21300000   20.81000000    3.45400000
 C(Fragment=1)            8.87213966   23.35983419    3.91601414
 C(Fragment=1)            9.19900000   13.75800000   14.79700000
 C(Fragment=1)            9.09307799   15.33894575   16.84743215
 C(Fragment=1)            9.33300000   21.03500000    2.06000000
 H(Fragment=1)            9.79896201   23.70612227    3.50860171
 H(Fragment=1)            8.10438326   23.44100222    3.17516202
 H(Fragment=1)            8.61172920   23.95501572    4.76621727
 C(Fragment=1)            9.36300000   12.59300000   15.63900000
 H(Fragment=1)            8.27846456   14.82018230   17.30807241
 H(Fragment=1)           10.01453972   15.01665925   17.28554137
 H(Fragment=1)            8.97586180   16.39187355   16.99744353
 C(Fragment=1)            9.59200000   20.36600000    0.92000000
 H(Fragment=1)            9.18600000   21.93300000    1.87200000
 C(Fragment=1)            9.49500000   11.20200000   15.44500000
 H(Fragment=1)            9.38700000   12.81900000   16.54100000
 C(Fragment=1)            9.64400000   18.93800000    0.95500000
 C(Fragment=1)            9.78800000   20.76700000   -0.49800000
 C(Fragment=1)            9.51900000   10.67300000   14.12600000
 C(Fragment=1)            9.66500000   10.19600000   16.52400000
 O(Fragment=1)            9.54700000   18.06600000    1.81400000
 C(Fragment=1)            9.87500000   18.39300000   -0.44800000
 C(Fragment=1)            9.79300000   22.00600000   -0.80700000
 C(Fragment=1)            9.95600000   19.50000000   -1.28400000
 O(Fragment=1)            9.39200000   11.06600000   13.00600000
 C(Fragment=1)            9.81700000    9.17100000   14.41200000
 C(Fragment=1)            9.89400000    8.91800000   15.77800000
 C(Fragment=1)            9.62800000   10.42600000   17.74200000
 C(Fragment=1)           10.05100000   17.11500000   -0.96600000
 C(Fragment=1)            9.66200000   23.19000000   -0.04000000
 C(Fragment=1)            9.94700000   22.28800000   -2.40400000
 C(Fragment=1)           10.21400000   19.33100000   -2.63800000
 C(Fragment=1)            9.98000000    8.13100000   13.50400000
 C(Fragment=1)           10.13500000    7.62800000   16.23500000
 C(Fragment=1)            9.43200000   11.60600000   18.50600000
 C(Fragment=1)            9.83900000    9.13800000   18.56600000
 H(Fragment=1)            9.99600000   16.37500000   -0.40800000
 C(Fragment=1)           10.30900000   16.94700000   -2.32300000
 N(Fragment=1)            9.52100000   24.15200000    0.55300000
 N(Fragment=1)           10.04917105   22.47509243   -3.46352702
 C(Fragment=1)           10.39000000   18.05400000   -3.15900000
 H(Fragment=1)           10.26800000   20.07200000   -3.19900000
 C(Fragment=1)           10.22000000    6.83900000   13.96100000
 H(Fragment=1)            9.92900000    8.29800000   12.59300000
 H(Fragment=1)           10.18500000    7.45800000   17.14900000
 C(Fragment=1)           10.29700000    6.58800000   15.32600000
 N(Fragment=1)            9.29400000   12.59800000   19.09600000
 N(Fragment=1)            9.99485821    8.18660011   19.17465956
 F(Fragment=1)           10.43900000   15.79400000   -2.90200000
 F(Fragment=1)           10.61400000   17.94400000   -4.51600000
 F(Fragment=1)           10.38200000    5.87100000   13.02600000
 F(Fragment=1)           10.54100000    5.38000000   15.73100000
 H(Fragment=2)           11.55234496   17.42996587   11.64350901
 C(Fragment=2)           12.47386595   17.10783881   12.08161084
 H(Fragment=2)           13.28839823   17.62662128   11.62084851
 H(Fragment=2)           12.59118361   16.05490172   11.93174400
 C(Fragment=2)           12.45900000   17.41300000   13.59100000
 C(Fragment=2)           12.53500000   16.44500000   14.58900000
 C(Fragment=2)           12.36800000   18.69000000   14.13200000
 S(Fragment=2)           12.65800000   14.72300000   14.54100000
 C(Fragment=2)           12.43500000   17.02600000   15.85900000
 S(Fragment=2)           12.27800000   18.69500000   15.86800000
 C(Fragment=2)           12.20400000   19.85500000   13.29000000
 C(Fragment=2)           12.55400000   14.63800000   16.28700000
 C(Fragment=2)           12.47400000   15.90400000   16.80500000
 C(Fragment=2)           12.07200000   21.24600000   13.48400000
 H(Fragment=2)           12.18000000   19.62900000   12.38700000
 C(Fragment=2)           12.51800000   13.71000000   17.33400000
 N(Fragment=2)           12.35700000   15.81500000   18.19600000
 C(Fragment=2)           12.04800000   21.77400000   14.80300000
 C(Fragment=2)           11.90200000   22.25200000   12.40500000
 C(Fragment=2)           12.68600000   12.29800000   17.24700000
 C(Fragment=2)           12.43000000   14.47500000   18.51400000
 C(Fragment=2)           12.18890925   16.93248904   19.13614027
 O(Fragment=2)           12.17500000   21.38200000   15.92200000
 C(Fragment=2)           11.75000000   23.27700000   14.51600000
 C(Fragment=2)           11.67300000   23.53000000   13.15100000
 C(Fragment=2)           11.93900000   22.02200000   11.18700000
 N(Fragment=2)           12.86200000   11.61300000   16.12500000
 C(Fragment=2)           12.85900000   11.67600000   18.45100000
 C(Fragment=2)           12.42100000   13.63000000   19.75800000
 H(Fragment=2)           11.18980069   16.92918412   19.51911699
 H(Fragment=2)           12.88125093   16.82539797   19.94490136
 H(Fragment=2)           12.37332442   17.85629513   18.62872194
 C(Fragment=2)           11.58700000   24.31700000   15.42500000
 C(Fragment=2)           11.43200000   24.82000000   12.69400000
 C(Fragment=2)           12.13500000   20.84100000   10.42300000
 C(Fragment=2)           11.72800000   23.31000000   10.36200000
 S(Fragment=2)           13.09500000   10.08200000   16.59300000
 N(Fragment=2)           13.01600000   10.27100000   18.27400000
 C(Fragment=2)           12.64200000   12.27600000   19.66000000
 N(Fragment=2)           12.22300000   13.94400000   21.11500000
 C(Fragment=2)           11.34700000   25.60900000   14.96800000
 H(Fragment=2)           11.63800000   24.15000000   16.33600000
 H(Fragment=2)           11.38200000   24.98900000   11.78000000
 C(Fragment=2)           11.27000000   25.86000000   13.60200000
 N(Fragment=2)           12.27300000   19.84900000    9.83300000
 N(Fragment=2)           11.57226997   24.26061745    9.75310295
 C(Fragment=2)           12.60600000   11.79500000   20.93000000
 C(Fragment=2)           12.40800000   12.74300000   21.85500000
 C(Fragment=2)           11.88780286   15.26529765   21.66519579
 F(Fragment=2)           11.18500000   26.57700000   15.90200000
 F(Fragment=2)           11.02600000   27.06800000   13.19700000
 S(Fragment=2)           12.85000000   10.23700000   21.76500000
 C(Fragment=2)           12.35600000   12.40000000   23.21500000
 H(Fragment=2)           11.14356802   15.15640627   22.42621955
 H(Fragment=2)           12.76561890   15.70967200   22.08575548
 H(Fragment=2)           11.51023474   15.89157516   20.88409478
 C(Fragment=2)           12.59400000   11.01800000   23.22700000
 S(Fragment=2)           12.14900000   13.16800000   24.70000000
 C(Fragment=2)           12.55000000   10.56000000   24.58300000
 C(Fragment=2)           12.35500000   11.63800000   25.47400000
 C(Fragment=2)           12.69586981    9.08826173   25.01231161
 C(Fragment=2)           12.23500000   11.41300000   26.86900000
 H(Fragment=2)           13.46364062    9.00725969   25.75316696
 H(Fragment=2)           11.76905562    8.74206389   25.41981930
 H(Fragment=2)           12.95626425    8.49289062   24.16223633
 C(Fragment=2)           11.97600000   12.08200000   28.00900000
 H(Fragment=2)           12.38200000   10.51500000   27.05700000
 C(Fragment=2)           11.92400000   13.51000000   27.97400000
 C(Fragment=2)           11.77900000   11.68000000   29.42600000
 O(Fragment=2)           12.02100000   14.38200000   27.11500000
 C(Fragment=2)           11.69200000   14.05400000   29.37700000
 C(Fragment=2)           11.77400000   10.44200000   29.73600000
 C(Fragment=2)           11.61100000   12.94800000   30.21300000
 C(Fragment=2)           11.51600000   15.33200000   29.89500000
 C(Fragment=2)           11.90500000    9.25800000   28.96900000
 C(Fragment=2)           11.62000000   10.15900000   31.33200000
 C(Fragment=2)           11.35300000   13.11700000   31.56700000
 H(Fragment=2)           11.57100000   16.07300000   29.33600000
 C(Fragment=2)           11.25800000   15.50100000   31.25100000
 N(Fragment=2)           12.04700000    8.29600000   28.37600000
 N(Fragment=2)           11.51781592    9.97122016   32.39099865
 C(Fragment=2)           11.17700000   14.39400000   32.08700000
 H(Fragment=2)           11.29900000   12.37600000   32.12800000
 F(Fragment=2)           11.12800000   16.65400000   31.83000000
 F(Fragment=2)           10.95300000   14.50400000   33.44400000

Eps=5.0

