%nprocshared=24
%mem=188GB
%chk=tda5.chk
# td(nstates=20) tda cam-b3lyp/6-31+G(d,p) int=(ultrafine,acc2e=11) nosymm iop(3/107=0010000000,3/108=0010000000) iop(3/33=1,9/40=5) scrf(iefpcm,read) punch=mo maxdisk=1TB

tda5

0 1 0 1 0 1
 S(Fragment=1)      8.47200000   22.36600000   12.33500000
 N(Fragment=1)      8.55100000   22.17700000   10.65400000
 N(Fragment=1)      8.70500000   20.83500000   12.80400000
 C(Fragment=1)      8.70800000   20.77200000   10.47800000
 C(Fragment=1)      8.88100000   20.15000000   11.68100000
 C(Fragment=1)      8.92500000   20.17100000    9.26900000
 C(Fragment=1)      9.04900000   18.73800000   11.59500000
 C(Fragment=1)      9.14600000   18.81700000    9.17000000
 C(Fragment=1)      8.96200000   20.65300000    7.99900000
 C(Fragment=1)      9.01300000   17.81000000   12.64200000
 C(Fragment=1)      9.13700000   17.97300000   10.41400000
 N(Fragment=1)      9.34500000   18.50400000    7.81400000
 S(Fragment=1)      8.71800000   22.21000000    7.16400000
 C(Fragment=1)      9.16000000   19.70400000    7.07300000
 S(Fragment=1)      8.90900000   17.72500000   14.38700000
 C(Fragment=1)      9.09300000   16.54400000   12.12400000
 N(Fragment=1)      9.21000000   16.63300000   10.73200000
 C(Fragment=1)      9.68154470   17.18282957    7.26432159
 C(Fragment=1)      8.97400000   21.42900000    5.70200000
 C(Fragment=1)      9.21200000   20.04800000    5.71300000
 C(Fragment=1)      9.03200000   16.00200000   14.34000000
 C(Fragment=1)      9.13200000   15.42100000   13.07000000
 C(Fragment=1)      9.37801302   15.51548584    9.79187569
 H(Fragment=1)     10.44605757   16.73206134    7.86200720
 H(Fragment=1)      8.81059253   16.56130220    7.27110686
 H(Fragment=1)     10.03295183   17.29345731    6.25974480
 C(Fragment=1)      9.01800000   21.88800000    4.34500000
 S(Fragment=1)      9.41900000   19.28000000    4.22800000
 C(Fragment=1)      9.10800000   15.03400000   15.33800000
 S(Fragment=1)      9.28900000   13.75300000   13.06100000
 H(Fragment=1)     10.31484161   15.03237497    9.97587594
 H(Fragment=1)      8.58203201   14.81324452    9.92667691
 H(Fragment=1)      9.35946059   15.88740971    8.78876630
 C(Fragment=1)      9.21300000   20.81000000    3.45400000
 C(Fragment=1)      8.87213966   23.35983419    3.91601414
 C(Fragment=1)      9.19900000   13.75800000   14.79700000
 C(Fragment=1)      9.09307799   15.33894575   16.84743215
 C(Fragment=1)      9.33300000   21.03500000    2.06000000
 H(Fragment=1)      9.79896201   23.70612227    3.50860171
 H(Fragment=1)      8.10438326   23.44100222    3.17516202
 H(Fragment=1)      8.61172920   23.95501572    4.76621727
 C(Fragment=1)      9.36300000   12.59300000   15.63900000
 H(Fragment=1)      8.27843840   14.82021695   17.30806515
 H(Fragment=1)     10.01452215   15.01661965   17.28554919
 H(Fragment=1)      8.97590553   16.39187850   16.99744296
 C(Fragment=1)      9.59200000   20.36600000    0.92000000
 H(Fragment=1)      9.18600000   21.93300000    1.87200000
 C(Fragment=1)      9.49500000   11.20200000   15.44500000
 H(Fragment=1)      9.38700000   12.81900000   16.54100000
 C(Fragment=1)      9.64400000   18.93800000    0.95500000
 C(Fragment=1)      9.78800000   20.76700000   -0.49800000
 C(Fragment=1)      9.51900000   10.67300000   14.12600000
 C(Fragment=1)      9.66500000   10.19600000   16.52400000
 O(Fragment=1)      9.54700000   18.06600000    1.81400000
 C(Fragment=1)      9.87500000   18.39300000   -0.44800000
 C(Fragment=1)      9.79300000   22.00600000   -0.80700000
 C(Fragment=1)      9.95600000   19.50000000   -1.28400000
 O(Fragment=1)      9.39200000   11.06600000   13.00600000
 C(Fragment=1)      9.81700000    9.17100000   14.41200000
 C(Fragment=1)      9.89400000    8.91800000   15.77800000
 C(Fragment=1)      9.62800000   10.42600000   17.74200000
 C(Fragment=1)     10.05100000   17.11500000   -0.96600000
 C(Fragment=1)      9.66200000   23.19000000   -0.04000000
 C(Fragment=1)      9.94700000   22.28800000   -2.40400000
 C(Fragment=1)     10.21400000   19.33100000   -2.63800000
 C(Fragment=1)      9.98000000    8.13100000   13.50400000
 C(Fragment=1)     10.13500000    7.62800000   16.23500000
 C(Fragment=1)      9.43200000   11.60600000   18.50600000
 C(Fragment=1)      9.83900000    9.13800000   18.56600000
 H(Fragment=1)      9.99600000   16.37500000   -0.40800000
 C(Fragment=1)     10.30900000   16.94700000   -2.32300000
 N(Fragment=1)      9.52100000   24.15200000    0.55300000
 N(Fragment=1)     10.04917105   22.47509243   -3.46352702
 C(Fragment=1)     10.39000000   18.05400000   -3.15900000
 H(Fragment=1)     10.26800000   20.07200000   -3.19900000
 C(Fragment=1)     10.22000000    6.83900000   13.96100000
 H(Fragment=1)      9.92900000    8.29800000   12.59300000
 H(Fragment=1)     10.18500000    7.45800000   17.14900000
 C(Fragment=1)     10.29700000    6.58800000   15.32600000
 N(Fragment=1)      9.29400000   12.59800000   19.09600000
 N(Fragment=1)      9.99485821    8.18660011   19.17465956
 F(Fragment=1)     10.43900000   15.79400000   -2.90200000
 F(Fragment=1)     10.61400000   17.94400000   -4.51600000
 F(Fragment=1)     10.38200000    5.87100000   13.02600000
 F(Fragment=1)     10.54100000    5.38000000   15.73100000
 F(Fragment=2)     13.43400000    7.05000000   15.90200000
 C(Fragment=2)     13.59600000    6.08200000   14.96800000
 C(Fragment=2)     13.51900000    6.33300000   13.60200000
 C(Fragment=2)     13.83600000    4.79000000   15.42500000
 F(Fragment=2)     13.27500000    7.54100000   13.19700000
 C(Fragment=2)     13.68100000    5.29300000   12.69400000
 C(Fragment=2)     13.99900000    3.75000000   14.51600000
 H(Fragment=2)     13.88700000    4.62300000   16.33600000
 C(Fragment=2)     13.92200000    4.00300000   13.15100000
 H(Fragment=2)     13.63100000    5.46200000   11.78000000
 C(Fragment=2)     14.29700000    2.24700000   14.80300000
 C(Fragment=2)     14.15100000    2.72500000   12.40500000
 O(Fragment=2)     14.42400000    1.85500000   15.92200000
 C(Fragment=2)     14.32100000    1.71900000   13.48400000
 C(Fragment=2)     14.18800000    2.49500000   11.18700000
 C(Fragment=2)     14.45300000    0.32800000   13.29000000
 C(Fragment=2)     14.38400000    1.31400000   10.42300000
 C(Fragment=2)     13.97700000    3.78300000   10.36200000
 H(Fragment=2)     14.42900000    0.10200000   12.38700000
 C(Fragment=2)     14.61700000   -0.83700000   14.13200000
 N(Fragment=2)     14.52200000    0.32200000    9.83300000
 N(Fragment=2)     13.82126997    4.73361745    9.75310295
 S(Fragment=2)     14.52700000   -0.83200000   15.86800000
 C(Fragment=2)     14.70800000   -2.11400000   13.59100000
 C(Fragment=2)     14.68400000   -2.50100000   15.85900000
 C(Fragment=2)     14.78400000   -3.08200000   14.58900000
 C(Fragment=2)     14.72286595   -2.41916119   12.08161084
 C(Fragment=2)     14.72300000   -3.62300000   16.80500000
 S(Fragment=2)     14.90700000   -4.80400000   14.54100000
 H(Fragment=2)     13.80134496   -2.09703413   11.64350901
 H(Fragment=2)     15.53739823   -1.90037872   11.62084851
 H(Fragment=2)     14.84018361   -3.47209828   11.93174400
 N(Fragment=2)     14.60600000   -3.71200000   18.19600000
 C(Fragment=2)     14.80300000   -4.88900000   16.28700000
 C(Fragment=2)     14.67900000   -5.05200000   18.51400000
 C(Fragment=2)     14.43790925   -2.59451096   19.13614027
 C(Fragment=2)     14.76700000   -5.81700000   17.33400000
 C(Fragment=2)     14.67000000   -5.89700000   19.75800000
 H(Fragment=2)     13.43880069   -2.59781588   19.51911699
 H(Fragment=2)     15.13025093   -2.70160203   19.94490136
 H(Fragment=2)     14.62232442   -1.67070487   18.62872194
 C(Fragment=2)     14.93500000   -7.22900000   17.24700000
 N(Fragment=2)     14.47200000   -5.58300000   21.11500000
 C(Fragment=2)     14.89100000   -7.25100000   19.66000000
 N(Fragment=2)     15.11100000   -7.91400000   16.12500000
 C(Fragment=2)     15.10800000   -7.85100000   18.45100000
 C(Fragment=2)     14.65700000   -6.78400000   21.85500000
 C(Fragment=2)     14.13680286   -4.26170235   21.66519579
 C(Fragment=2)     14.85500000   -7.73200000   20.93000000
 S(Fragment=2)     15.34400000   -9.44500000   16.59300000
 N(Fragment=2)     15.26500000   -9.25600000   18.27400000
 C(Fragment=2)     14.60500000   -7.12700000   23.21500000
 H(Fragment=2)     13.39256928   -4.37059391   22.42622076
 H(Fragment=2)     15.01461927   -3.81732726   22.08575392
 H(Fragment=2)     13.75923310   -3.63542540   20.88409512
 S(Fragment=2)     15.09900000   -9.29000000   21.76500000
 S(Fragment=2)     14.39800000   -6.35900000   24.70000000
 C(Fragment=2)     14.84300000   -8.50900000   23.22700000
 C(Fragment=2)     14.60400000   -7.88900000   25.47400000
 C(Fragment=2)     14.79900000   -8.96700000   24.58300000
 C(Fragment=2)     14.48400000   -8.11400000   26.86900000
 C(Fragment=2)     14.94486981  -10.43873827   25.01231161
 C(Fragment=2)     14.22500000   -7.44500000   28.00900000
 H(Fragment=2)     14.63100000   -9.01200000   27.05700000
 H(Fragment=2)     15.71268489  -10.51974960   25.75312007
 H(Fragment=2)     14.01807454  -10.78491693   25.41987862
 H(Fragment=2)     15.20520107  -11.03411927   24.16222391
 C(Fragment=2)     14.17300000   -6.01700000   27.97400000
 C(Fragment=2)     14.02800000   -7.84700000   29.42600000
 O(Fragment=2)     14.27000000   -5.14500000   27.11500000
 C(Fragment=2)     13.94100000   -5.47300000   29.37700000
 C(Fragment=2)     14.02300000   -9.08500000   29.73600000
 C(Fragment=2)     13.86000000   -6.57900000   30.21300000
 C(Fragment=2)     13.76500000   -4.19500000   29.89500000
 C(Fragment=2)     14.15500000  -10.26900000   28.96900000
 C(Fragment=2)     13.86900000   -9.36800000   31.33200000
 C(Fragment=2)     13.60200000   -6.41000000   31.56700000
 H(Fragment=2)     13.82000000   -3.45400000   29.33600000
 C(Fragment=2)     13.50700000   -4.02600000   31.25100000
 N(Fragment=2)     14.29600000  -11.23100000   28.37600000
 N(Fragment=2)     13.76681592   -9.55577984   32.39099865
 C(Fragment=2)     13.42600000   -5.13300000   32.08700000
 H(Fragment=2)     13.54800000   -7.15100000   32.12800000
 F(Fragment=2)     13.37700000   -2.87300000   31.83000000
 F(Fragment=2)     13.20200000   -5.02300000   33.44400000

Eps=5.0

