%nprocshared=24
%mem=188GB
%chk=tda6.chk
# td(nstates=20) tda cam-b3lyp/6-31+G(d,p) scf=xqc int=(ultrafine,acc2e=11) nosymm iop(3/107=0010000000,3/108=0010000000) iop(3/33=1,9/40=5) scrf(iefpcm,read) punch=mo maxdisk=1TB

tda6

0 1 0 1 0 1
 S(Fragment=1)      6.82300000    6.77700000   12.79600000
 C(Fragment=1)      7.08900000    5.09300000   12.90200000
 C(Fragment=1)      6.73400000    6.90400000   14.53100000
 C(Fragment=1)      7.26600000    4.02600000   11.99700000
 C(Fragment=1)      7.10700000    4.66500000   14.19500000
 C(Fragment=1)      6.50600000    8.07500000   15.26800000
 C(Fragment=1)      6.91700000    5.64000000   15.17600000
 N(Fragment=1)      7.24200000    3.82900000   10.64000000
 C(Fragment=1)      7.40400000    2.78900000   12.66800000
 S(Fragment=1)      7.36100000    2.90400000   14.35000000
 C(Fragment=1)      6.33300000    9.41200000   14.99700000
 H(Fragment=1)      6.46000000    7.90400000   16.18000000
 C(Fragment=1)      6.90619864    5.39607505   16.69652095
 C(Fragment=1)      7.41800000    2.41100000   10.36500000
 C(Fragment=1)      7.06684941    4.88007430    9.62734750
 C(Fragment=1)      7.48000000    1.82000000   11.62100000
 C(Fragment=1)      6.26200000    9.89600000   13.72400000
 C(Fragment=1)      6.07200000   10.52200000   15.86400000
 H(Fragment=1)      7.66645502    5.99059711   17.15853151
 H(Fragment=1)      5.95058420    5.66695343   17.09442289
 H(Fragment=1)      7.09405187    4.36119432   16.89307385
 C(Fragment=1)      7.51800000    1.62600000    9.22200000
 H(Fragment=1)      6.13979374    5.38701134    9.79611548
 H(Fragment=1)      7.87356909    5.57962309    9.69615767
 H(Fragment=1)      7.05969487    4.43865579    8.65266882
 C(Fragment=1)      7.64100000    0.44400000   11.73600000
 O(Fragment=1)      6.41600000    9.37500000   12.58700000
 C(Fragment=1)      6.01800000   11.39600000   13.71500000
 C(Fragment=1)      6.04500000   10.43600000   17.24400000
 C(Fragment=1)      5.87500000   11.76600000   15.06900000
 C(Fragment=1)      7.67900000    0.25000000    9.33500000
 N(Fragment=1)      7.49900000    1.98000000    7.81400000
 N(Fragment=1)      7.73200000   -0.30400000   12.89900000
 C(Fragment=1)      7.73900000   -0.34100000   10.59100000
 C(Fragment=1)      5.81900000   12.35500000   12.74600000
 C(Fragment=1)      6.17800000    9.28100000   17.97300000
 C(Fragment=1)      5.82500000   11.50800000   18.06300000
 C(Fragment=1)      5.59500000   13.08200000   15.46500000
 C(Fragment=1)      7.79100000   -0.26900000    7.98400000
 C(Fragment=1)      7.66500000    0.74900000    7.14200000
 C(Fragment=1)      7.34248835    3.31649117    7.22222686
 S(Fragment=1)      7.90000000   -1.82700000   12.43600000
 N(Fragment=1)      7.92700000   -1.69200000   10.82800000
 C(Fragment=1)      5.57200000   13.62500000   13.18000000
 H(Fragment=1)      5.85100000   12.14800000   11.84000000
 N(Fragment=1)      6.33500000    8.32300000   18.65300000
 N(Fragment=1)      5.64200000   12.48900000   18.76300000
 H(Fragment=1)      5.55000000   13.32900000   16.35900000
 C(Fragment=1)      5.40300000   13.94200000   14.50500000
 S(Fragment=1)      8.01100000   -1.81600000    7.29100000
 C(Fragment=1)      7.80700000    0.30100000    5.81200000
 H(Fragment=1)      6.40927065    3.73733178    7.53351113
 H(Fragment=1)      8.14395081    3.94653327    7.54719590
 H(Fragment=1)      7.36032019    3.23842814    6.15522724
 F(Fragment=1)      5.40500000   14.60000000   12.24000000
 F(Fragment=1)      5.14800000   15.21700000   14.73600000
 C(Fragment=1)      8.01000000   -0.98100000    5.69000000
 S(Fragment=1)      7.86400000    1.07800000    4.23200000
 C(Fragment=1)      8.15100000   -1.60400000    4.54500000
 C(Fragment=1)      8.11200000   -0.55500000    3.57600000
 C(Fragment=1)      8.31948676   -3.11523706    4.30133065
 C(Fragment=1)      8.29500000   -0.78400000    2.14900000
 H(Fragment=1)      7.55281531   -3.45719190    3.63786868
 H(Fragment=1)      9.27834117   -3.30134856    3.86445455
 H(Fragment=1)      8.24436922   -3.63718566    5.23236610
 C(Fragment=1)      8.36000000    0.03900000    1.05900000
 H(Fragment=1)      8.38700000   -1.68400000    1.93500000
 C(Fragment=1)      8.63000000   -0.40600000   -0.43700000
 C(Fragment=1)      8.34500000    1.44500000    0.99200000
 C(Fragment=1)      8.73700000    0.82800000   -1.18900000
 C(Fragment=1)      8.81000000   -1.68100000   -0.77200000
 O(Fragment=1)      8.12900000    2.26800000    1.91800000
 C(Fragment=1)      8.53600000    1.96200000   -0.40800000
 C(Fragment=1)      8.93000000    0.95400000   -2.56000000
 C(Fragment=1)      8.68900000   -2.85700000   -0.01700000
 C(Fragment=1)      9.12500000   -1.97200000   -2.12000000
 C(Fragment=1)      8.52900000    3.21900000   -0.99800000
 H(Fragment=1)      9.06400000    0.19600000   -3.08100000
 C(Fragment=1)      8.92300000    2.21100000   -3.15000000
 N(Fragment=1)      8.55500000   -3.83600000    0.62800000
 N(Fragment=1)      9.34600000   -2.19800000   -3.25400000
 C(Fragment=1)      8.72200000    3.34500000   -2.36900000
 H(Fragment=1)      8.39400000    3.97700000   -0.47700000
 F(Fragment=1)      9.05200000    2.49000000   -4.45800000
 F(Fragment=1)      8.76200000    4.58200000   -2.85200000
 C(Fragment=2)      5.00600000   -3.34500000    2.36900000
 C(Fragment=2)      4.80500000   -2.21100000    3.15000000
 C(Fragment=2)      5.19900000   -3.21900000    0.99800000
 F(Fragment=2)      4.96500000   -4.58200000    2.85200000
 C(Fragment=2)      4.79700000   -0.95400000    2.56000000
 F(Fragment=2)      4.67500000   -2.49000000    4.45800000
 C(Fragment=2)      5.19100000   -1.96200000    0.40800000
 H(Fragment=2)      5.33300000   -3.97700000    0.47700000
 C(Fragment=2)      4.99000000   -0.82800000    1.18900000
 H(Fragment=2)      4.66300000   -0.19600000    3.08100000
 C(Fragment=2)      5.38200000   -1.44500000   -0.99200000
 C(Fragment=2)      5.09700000    0.40600000    0.43700000
 O(Fragment=2)      5.59800000   -2.26800000   -1.91800000
 C(Fragment=2)      5.36700000   -0.03900000   -1.05900000
 C(Fragment=2)      4.91700000    1.68100000    0.77200000
 C(Fragment=2)      5.43300000    0.78400000   -2.14900000
 C(Fragment=2)      5.03800000    2.85700000    0.01700000
 C(Fragment=2)      4.60200000    1.97200000    2.12000000
 C(Fragment=2)      5.61600000    0.55500000   -3.57600000
 H(Fragment=2)      5.34000000    1.68400000   -1.93500000
 N(Fragment=2)      5.17300000    3.83600000   -0.62800000
 N(Fragment=2)      4.38100000    2.19800000    3.25400000
 S(Fragment=2)      5.86300000   -1.07800000   -4.23200000
 C(Fragment=2)      5.57600000    1.60400000   -4.54500000
 C(Fragment=2)      5.92000000   -0.30100000   -5.81200000
 C(Fragment=2)      5.71700000    0.98100000   -5.69000000
 C(Fragment=2)      5.40664818    3.11513979   -4.30132707
 C(Fragment=2)      6.06200000   -0.74900000   -7.14200000
 S(Fragment=2)      5.71600000    1.81600000   -7.29100000
 H(Fragment=2)      4.44797033    3.30062796   -3.86379888
 H(Fragment=2)      6.17354611    3.45766938   -3.63842357
 H(Fragment=2)      5.48076163    3.63706937   -5.23245365
 C(Fragment=2)      5.93600000    0.26900000   -7.98400000
 N(Fragment=2)      6.22800000   -1.98000000   -7.81400000
 C(Fragment=2)      6.04800000   -0.25000000   -9.33500000
 C(Fragment=2)      6.20900000   -1.62600000   -9.22200000
 C(Fragment=2)      6.38451165   -3.31649117   -7.22222686
 C(Fragment=2)      5.98800000    0.34100000  -10.59100000
 C(Fragment=2)      6.30900000   -2.41100000  -10.36500000
 H(Fragment=2)      6.88585376   -3.23315350   -6.28062666
 H(Fragment=2)      5.42035937   -3.75660665   -7.07522770
 H(Fragment=2)      6.96124525   -3.93253307   -7.88007998
 N(Fragment=2)      5.80100000    1.69200000  -10.82800000
 C(Fragment=2)      6.08700000   -0.44400000  -11.73600000
 N(Fragment=2)      6.48500000   -3.82900000  -10.64000000
 C(Fragment=2)      6.24700000   -1.82000000  -11.62100000
 S(Fragment=2)      5.82700000    1.82700000  -12.43600000
 N(Fragment=2)      5.99500000    0.30400000  -12.89900000
 C(Fragment=2)      6.46100000   -4.02600000  -11.99700000
 C(Fragment=2)      6.66015059   -4.88007430   -9.62734750
 C(Fragment=2)      6.32300000   -2.78900000  -12.66800000
 C(Fragment=2)      6.63800000   -5.09300000  -12.90200000
 H(Fragment=2)      7.54827025   -4.68689524   -9.06270130
 H(Fragment=2)      5.81494615   -4.88762105   -8.97124347
 H(Fragment=2)      6.74472590   -5.83077399  -10.11099727
 S(Fragment=2)      6.36600000   -2.90400000  -14.35000000
 S(Fragment=2)      6.90400000   -6.77700000  -12.79600000
 C(Fragment=2)      6.62100000   -4.66500000  -14.19500000
 C(Fragment=2)      6.99300000   -6.90400000  -14.53100000
 C(Fragment=2)      6.81000000   -5.64000000  -15.17600000
 C(Fragment=2)      7.22100000   -8.07500000  -15.26800000
 C(Fragment=2)      6.81987406   -5.39617542  -16.69654335
 C(Fragment=2)      7.39400000   -9.41200000  -14.99700000
 H(Fragment=2)      7.26700000   -7.90400000  -16.18000000
 H(Fragment=2)      7.77542836   -5.66655969  -17.09492548
 H(Fragment=2)      6.05970131   -5.99114485  -17.15811542
 H(Fragment=2)      6.63135304   -4.36141117  -16.89307012
 C(Fragment=2)      7.46600000   -9.89600000  -13.72400000
 C(Fragment=2)      7.65500000  -10.52200000  -15.86400000
 O(Fragment=2)      7.31100000   -9.37500000  -12.58700000
 C(Fragment=2)      7.70900000  -11.39600000  -13.71500000
 C(Fragment=2)      7.68200000  -10.43600000  -17.24400000
 C(Fragment=2)      7.85200000  -11.76600000  -15.06900000
 C(Fragment=2)      7.90800000  -12.35500000  -12.74600000
 C(Fragment=2)      7.55000000   -9.28100000  -17.97300000
 C(Fragment=2)      7.90200000  -11.50800000  -18.06300000
 C(Fragment=2)      8.13200000  -13.08200000  -15.46500000
 C(Fragment=2)      8.15500000  -13.62500000  -13.18000000
 H(Fragment=2)      7.87600000  -12.14800000  -11.84000000
 N(Fragment=2)      7.39200000   -8.32300000  -18.65300000
 N(Fragment=2)      8.08500000  -12.48900000  -18.76300000
 H(Fragment=2)      8.17700000  -13.32900000  -16.35900000
 C(Fragment=2)      8.32400000  -13.94200000  -14.50500000
 F(Fragment=2)      8.32300000  -14.60000000  -12.24000000
 H(Fragment=2)      8.62586068  -14.93636461  -14.75998854

Eps=5.0

