%nprocshared=24
%mem=188GB
%chk=tda7.chk
# td(nstates=20) tda cam-b3lyp/6-31+G(d,p) int=(ultrafine,acc2e=11) nosymm iop(3/107=0010000000,3/108=0010000000) iop(3/33=1,9/40=5) scrf(iefpcm,read) punch=mo maxdisk=1TB

tda7

0 1 0 1 0 1
 S(Fragment=1)      6.82300000    6.77700000   12.79600000
 C(Fragment=1)      7.08900000    5.09300000   12.90200000
 C(Fragment=1)      6.73400000    6.90400000   14.53100000
 C(Fragment=1)      7.26600000    4.02600000   11.99700000
 C(Fragment=1)      7.10700000    4.66500000   14.19500000
 C(Fragment=1)      6.50600000    8.07500000   15.26800000
 C(Fragment=1)      6.91700000    5.64000000   15.17600000
 N(Fragment=1)      7.24200000    3.82900000   10.64000000
 C(Fragment=1)      7.40400000    2.78900000   12.66800000
 S(Fragment=1)      7.36100000    2.90400000   14.35000000
 C(Fragment=1)      6.33300000    9.41200000   14.99700000
 H(Fragment=1)      6.46000000    7.90400000   16.18000000
 C(Fragment=1)      6.90619864    5.39607505   16.69652095
 C(Fragment=1)      7.41800000    2.41100000   10.36500000
 C(Fragment=1)      7.06684941    4.88007430    9.62734750
 C(Fragment=1)      7.48000000    1.82000000   11.62100000
 C(Fragment=1)      6.26200000    9.89600000   13.72400000
 C(Fragment=1)      6.07200000   10.52200000   15.86400000
 H(Fragment=1)      7.66639164    5.99066948   17.15854267
 H(Fragment=1)      5.95055248    5.66686312   17.09440817
 H(Fragment=1)      7.09414696    4.36121227   16.89307740
 C(Fragment=1)      7.51800000    1.62600000    9.22200000
 H(Fragment=1)      6.14552827    5.39494194    9.80335512
 H(Fragment=1)      7.87991606    5.57298368    9.68816856
 H(Fragment=1)      7.04761337    4.43736461    8.65341829
 C(Fragment=1)      7.64100000    0.44400000   11.73600000
 O(Fragment=1)      6.41600000    9.37500000   12.58700000
 C(Fragment=1)      6.01800000   11.39600000   13.71500000
 C(Fragment=1)      6.04500000   10.43600000   17.24400000
 C(Fragment=1)      5.87500000   11.76600000   15.06900000
 C(Fragment=1)      7.67900000    0.25000000    9.33500000
 N(Fragment=1)      7.49900000    1.98000000    7.81400000
 N(Fragment=1)      7.73200000   -0.30400000   12.89900000
 C(Fragment=1)      7.73900000   -0.34100000   10.59100000
 C(Fragment=1)      5.81900000   12.35500000   12.74600000
 C(Fragment=1)      6.17800000    9.28100000   17.97300000
 C(Fragment=1)      5.82500000   11.50800000   18.06300000
 C(Fragment=1)      5.59500000   13.08200000   15.46500000
 C(Fragment=1)      7.79100000   -0.26900000    7.98400000
 C(Fragment=1)      7.66500000    0.74900000    7.14200000
 C(Fragment=1)      7.34248835    3.31649117    7.22222686
 S(Fragment=1)      7.90000000   -1.82700000   12.43600000
 N(Fragment=1)      7.92700000   -1.69200000   10.82800000
 C(Fragment=1)      5.57200000   13.62500000   13.18000000
 H(Fragment=1)      5.85100000   12.14800000   11.84000000
 N(Fragment=1)      6.33500000    8.32300000   18.65300000
 N(Fragment=1)      5.64200000   12.48900000   18.76300000
 H(Fragment=1)      5.55000000   13.32900000   16.35900000
 C(Fragment=1)      5.40300000   13.94200000   14.50500000
 S(Fragment=1)      8.01100000   -1.81600000    7.29100000
 C(Fragment=1)      7.80700000    0.30100000    5.81200000
 H(Fragment=1)      6.40807355    3.73624687    7.53137752
 H(Fragment=1)      8.14249118    3.94729634    7.54930530
 H(Fragment=1)      7.36297692    3.23874998    6.15525145
 F(Fragment=1)      5.40500000   14.60000000   12.24000000
 F(Fragment=1)      5.14800000   15.21700000   14.73600000
 C(Fragment=1)      8.01000000   -0.98100000    5.69000000
 S(Fragment=1)      7.86400000    1.07800000    4.23200000
 C(Fragment=1)      8.15100000   -1.60400000    4.54500000
 C(Fragment=1)      8.11200000   -0.55500000    3.57600000
 C(Fragment=1)      8.31948676   -3.11523706    4.30133065
 C(Fragment=1)      8.29500000   -0.78400000    2.14900000
 H(Fragment=1)      7.55275072   -3.45721288    3.63795415
 H(Fragment=1)      9.27829796   -3.30133731    3.86435494
 H(Fragment=1)      8.24447702   -3.63717593    5.23238025
 C(Fragment=1)      8.36000000    0.03900000    1.05900000
 H(Fragment=1)      8.38700000   -1.68400000    1.93500000
 C(Fragment=1)      8.63000000   -0.40600000   -0.43700000
 C(Fragment=1)      8.34500000    1.44500000    0.99200000
 C(Fragment=1)      8.73700000    0.82800000   -1.18900000
 C(Fragment=1)      8.81000000   -1.68100000   -0.77200000
 O(Fragment=1)      8.12900000    2.26800000    1.91800000
 C(Fragment=1)      8.53600000    1.96200000   -0.40800000
 C(Fragment=1)      8.93000000    0.95400000   -2.56000000
 C(Fragment=1)      8.68900000   -2.85700000   -0.01700000
 C(Fragment=1)      9.12500000   -1.97200000   -2.12000000
 C(Fragment=1)      8.52900000    3.21900000   -0.99800000
 H(Fragment=1)      9.06400000    0.19600000   -3.08100000
 C(Fragment=1)      8.92300000    2.21100000   -3.15000000
 N(Fragment=1)      8.55500000   -3.83600000    0.62800000
 N(Fragment=1)      9.34600000   -2.19800000   -3.25400000
 C(Fragment=1)      8.72200000    3.34500000   -2.36900000
 H(Fragment=1)      8.39400000    3.97700000   -0.47700000
 F(Fragment=1)      9.05200000    2.49000000   -4.45800000
 F(Fragment=1)      8.76200000    4.58200000   -2.85200000
 N(Fragment=2)      3.75400000    4.59700000   10.27500000
 C(Fragment=2)      3.91100000    3.63900000   10.95500000
 C(Fragment=2)      4.04400000    2.48500000   11.68400000
 C(Fragment=2)      4.01700000    2.39800000   13.06400000
 C(Fragment=2)      4.26400000    1.41200000   10.86600000
 C(Fragment=2)      3.75600000    3.50800000   13.93200000
 C(Fragment=2)      4.21400000    1.15400000   13.86000000
 N(Fragment=2)      4.44600000    0.43200000   10.16500000
 C(Fragment=2)      3.58200000    4.84600000   13.66000000
 C(Fragment=2)      3.82700000    3.02400000   15.20500000
 C(Fragment=2)      4.49400000   -0.16100000   13.46300000
 C(Fragment=2)      4.07100000    1.52500000   15.21300000
 H(Fragment=2)      3.62900000    5.01700000   12.74900000
 C(Fragment=2)      3.35400000    6.01700000   14.39800000
 O(Fragment=2)      3.67300000    3.54600000   16.34200000
 H(Fragment=2)      4.53900000   -0.40800000   12.56900000
 C(Fragment=2)      4.68600000   -1.02100000   14.42400000
 C(Fragment=2)      4.27000000    0.56500000   16.18300000
 S(Fragment=2)      3.26600000    6.14400000   16.13300000
 C(Fragment=2)      3.17200000    7.28100000   13.75300000
 F(Fragment=2)      4.94100000   -2.29600000   14.19200000
 C(Fragment=2)      4.51700000   -0.70500000   15.74900000
 H(Fragment=2)      4.23800000    0.77200000   17.08800000
 C(Fragment=2)      3.00000000    7.82800000   16.02600000
 C(Fragment=2)      2.98200000    8.25600000   14.73300000
 C(Fragment=2)      3.18380164    7.52463960   12.23244074
 F(Fragment=2)      4.68400000   -1.67900000   16.68900000
 C(Fragment=2)      2.82200000    8.89400000   16.93200000
 S(Fragment=2)      2.72800000   10.01700000   14.57800000
 H(Fragment=2)      4.13952145    7.25324230   11.83514596
 H(Fragment=2)      2.42353753    6.93038698   11.77009637
 H(Fragment=2)      2.99654575    8.55957157   12.03558786
 N(Fragment=2)      2.84700000    9.09200000   18.28900000
 C(Fragment=2)      2.68400000   10.13100000   16.26100000
 C(Fragment=2)      2.67000000   10.51000000   18.56300000
 C(Fragment=2)      3.02393457    8.04184219   19.30229302
 C(Fragment=2)      2.60900000   11.10100000   17.30800000
 C(Fragment=2)      2.57200000   11.29500000   19.70600000
 H(Fragment=2)      3.91094730    8.23765827   19.86777022
 H(Fragment=2)      2.17807650    8.03230475   19.95752821
 H(Fragment=2)      3.11156895    7.09116326   18.81914730
 C(Fragment=2)      2.44800000   12.47700000   17.19200000
 C(Fragment=2)      2.41100000   12.67000000   19.59300000
 N(Fragment=2)      2.59000000   10.94000000   21.11500000
 N(Fragment=2)      2.35600000   13.22400000   16.02900000
 C(Fragment=2)      2.34900000   13.26200000   18.33800000
 C(Fragment=2)      2.29900000   13.19000000   20.94400000
 C(Fragment=2)      2.42500000   12.17100000   21.78600000
 C(Fragment=2)      2.74478482    9.60334855   21.70686532
 S(Fragment=2)      2.18900000   14.74800000   16.49200000
 N(Fragment=2)      2.16200000   14.61200000   18.10100000
 S(Fragment=2)      2.07900000   14.73600000   21.63700000
 C(Fragment=2)      2.28300000   12.61900000   23.11700000
 H(Fragment=2)      3.24669297    9.68605030   22.64822000
 H(Fragment=2)      1.78004267    9.16469761   21.85437110
 H(Fragment=2)      3.32028528    8.98636136   21.04881819
 C(Fragment=2)      2.07900000   13.90200000   23.23800000
 S(Fragment=2)      2.22600000   11.84300000   24.69700000
 C(Fragment=2)      1.93900000   14.52500000   24.38400000
 C(Fragment=2)      1.97800000   13.47600000   25.35300000
 C(Fragment=2)      1.77150037   16.03628565   24.62804827
 C(Fragment=2)      1.79500000   13.70400000   26.77900000
 H(Fragment=2)      0.81269761   16.22293220   25.06480945
 H(Fragment=2)      2.53829010   16.37753926   25.29173455
 H(Fragment=2)      1.84713384   16.55843417   23.69716670
 C(Fragment=2)      1.72900000   12.88100000   27.87000000
 H(Fragment=2)      1.70300000   14.60500000   26.99300000
 C(Fragment=2)      1.45900000   13.32700000   29.36500000
 C(Fragment=2)      1.74500000   11.47600000   27.93600000
 C(Fragment=2)      1.35200000   12.09300000   30.11700000
 C(Fragment=2)      1.27900000   14.60100000   29.70100000
 O(Fragment=2)      1.96100000   10.65200000   27.01000000
 C(Fragment=2)      1.55300000   10.95900000   29.33600000
 C(Fragment=2)      1.15900000   11.96700000   31.48900000
 C(Fragment=2)      1.40000000   15.77700000   28.94600000
 C(Fragment=2)      0.96400000   14.89300000   31.04900000
 C(Fragment=2)      1.56000000    9.70100000   29.92600000
 H(Fragment=2)      1.02400000   12.72500000   32.00900000
 C(Fragment=2)      1.16600000   10.70900000   32.07900000
 N(Fragment=2)      1.53500000   16.75700000   28.30100000
 N(Fragment=2)      0.74300000   15.11800000   32.18300000
 C(Fragment=2)      1.36700000    9.57600000   31.29800000
 H(Fragment=2)      1.69400000    8.94300000   29.40600000
 F(Fragment=2)      1.03700000   10.43000000   33.38600000
 F(Fragment=2)      1.32700000    8.33900000   31.78100000

Eps=5.0

